# HZ S RI R 50
2000000000 0.950362 0.295064
2001982161 0.946539 -0.329443
2003964322 0.933551 0.191318
2005946483 0.999203 -0.196524
2007928644 1.003952 -0.437587
2009910805 1.03089 0.127569
2011892966 0.997105 0.260135
2013875127 0.903241 -0.807872
2015857288 0.902686 -0.810904
2017839449 1.06357 -0.103716
2019821610 1.071739 -0.464641
2021803771 1.051783 0.184438
2023785932 0.989437 -0.800839
2025768093 0.989255 -0.772079
2027750254 0.864946 -0.864166
2029732415 1.037231 -0.067751
2031714576 0.964513 0.222163
2033696737 0.947199 -0.70485
2035678898 0.937484 -0.683933
2037661059 0.909334 -0.647243
2039643220 0.932446 -0.511188
2041625381 0.945905 0.134413
2043607542 0.797177 -0.590626
2045589703 0.845388 -0.503664
2047571864 0.740314 -0.573245
2049554025 0.784008 -0.464748
2051536186 0.985899 -0.038799
2053518347 0.38064 -0.554548
2055500508 0.700767 -0.413259
2057482669 0.47496 -0.5605
2059464830 0.573241 -0.552361
2061446991 0.994572 -0.163204
2063429152 0.062475 -0.657567
2065411313 0.556965 -0.575941
2067393474 0.073262 -0.690856
2069375635 0.212051 -0.750794
2071357796 1.000564 -0.243818
2073339957 -0.310422 -0.843562
2075322118 0.512152 -0.802202
2077304279 -0.153052 -0.963556
2079286440 0.277366 -0.913674
2081268601 0.933697 -0.285836
2083250762 0.21077 -1.048165
2085232923 0.189286 -1.062894
2087215084 0.916267 -0.390449
2089197245 0.493954 -0.933477
2091179406 -0.420091 -1.152118
2093161567 0.061831 -1.1461
2095143728 0.656433 -0.833399
2097125889 0.859107 -0.537496
2099108050 0.046037 -1.260722
2101090211 0.448599 -1.043312
2103072372 -0.110854 -1.229095
2105054533 -0.10961 -1.178736
2107036694 -0.11919 -1.220963
2109018855 0.234688 -1.144128
2111001016 0.767023 -0.654812
2112983177 -0.614769 -1.122966
2114965338 0.386851 -1.019833
2116947499 0.071139 -1.086094
2118929660 -0.085954 -1.1075
2120911821 0.083803 -1.121522
2122893982 -0.052521 -1.121138
2124876143 -0.160405 -1.050089
2126858304 0.264222 -1.000538
2128840465 0.65457 -0.727962
2130822626 -0.14137 -0.843903
2132804787 0.179776 -0.931285
2134786948 -0.080888 -0.871237
2136769109 0.004108 -0.905007
2138751270 -0.135453 -0.804808
2140733431 -0.043281 -0.793061
2142715592 -0.316518 -0.542323
2144697753 -0.16306 -0.714505
2146679914 0.56917 -0.809665
2148662075 -0.41899 -0.565496
2150644236 -0.031786 -0.840746
2152626397 -0.519056 -0.473098
2154608558 -0.560295 -0.424026
2156590719 -0.498061 -0.568143
2158572880 -0.712254 -0.4033
2160555041 -0.661885 -0.579794
2162537202 -0.716682 -0.566469
2164519363 0.30823 -0.91943
2166501524 -0.59317 -0.713574
2168483685 -0.449303 -0.802491
2170465846 -0.910847 -0.571019
2172448007 -1.131629 -0.356429
2174430168 -1.147803 -0.430157
2176412329 -0.752165 -0.843123
2178394490 -0.258583 -0.997853
2180376651 -0.011421 -0.937865
2182358812 -1.014944 -0.721936
2184340973 -1.209584 -0.55399
2186323134 -0.597813 -0.970964
2188305295 -0.095052 -0.983667
2190287456 -0.155021 -0.98743
2192269617 -0.745488 -0.826174
2194251778 -0.906621 -0.743775
2196233939 -0.035805 -0.975722
2198216100 -0.833887 -0.91106
2200198261 0.373862 0.74575
2202180422 -0.594649 -1.023205
2204162583 -1.109299 -0.416717
2206144744 -1.011498 -0.519554
2208126905 -1.004546 -0.533573
2210109066 -0.965406 -0.541924
2212091227 -0.936389 -0.49306
2214073388 -0.908449 -0.33062
2216055549 -0.827743 -0.295059
2218037710 -0.73575 -0.325191
2220019871 -0.720355 -0.186065
2222002032 -0.731622 -0.243738
2223984193 -0.689245 -0.10724
2225966354 -0.675562 -0.15791
2227948515 -0.647163 -0.133284
2229930676 -0.231644 -0.920426
2231912837 -0.238569 -0.936209
2233894998 -0.293672 -0.953029
2235877159 -0.324023 -1.005188
2237859320 -0.348418 -0.997207
2239841481 -0.379707 -1.015925
2241823642 -0.372134 -0.963943
2243805803 -0.404361 -0.908929
2245787964 -0.401709 -0.974784
2247770125 -0.399485 -0.988813
2249752286 -0.441561 -0.96598
2251734447 -0.393299 -0.957702
2253716608 -0.571217 -0.760891
2255698769 -0.377556 -0.83539
2257680930 -0.451241 -0.733522
2259663091 -0.477507 -0.845388
2261645252 -0.50832 -0.845018
2263627413 -0.574346 -0.804997
2265609574 -0.551883 -0.820986
2267591735 -0.543941 -0.791289
2269573896 -0.61362 -0.739407
2271556057 -0.623061 -0.775304
2273538218 -0.853321 -0.613787
2275520379 -0.682908 -0.747683
2277502540 -0.682333 -0.717219
2279484701 -0.702254 -0.683494
2281466862 -0.666067 -0.637304
2283449023 -0.722212 -0.645954
2285431184 -0.751571 -0.684307
2287413345 -0.903404 -0.572909
2289395506 0.239475 -0.618546
2291377667 -0.874352 -0.530438
2293359828 -0.722371 -0.566318
2295341989 -0.754618 -0.566919
2297324150 -0.795714 -0.571006
2299306311 -0.831268 -0.554096
2301288472 -0.806017 -0.549465
2303270633 -0.796069 -0.510517
2305252794 -0.782864 -0.441126
2307234955 -0.782093 -0.428942
2309217116 -0.870456 -0.312601
2311199277 -0.869965 -0.425367
2313181438 -0.881332 -0.432846
2315163599 -0.874708 -0.404806
2317145760 -0.858109 -0.397638
2319127921 -0.843759 -0.320957
2321110082 -0.879198 -0.346776
2323092243 -0.915987 -0.305953
2325074404 -0.927568 -0.276839
2327056565 -0.958365 -0.304699
2329038726 -0.900427 -0.256521
2331020887 -0.884145 -0.230706
2333003048 -0.885663 -0.219215
2334985209 -0.922071 -0.186539
2336967370 -0.949964 -0.165697
2338949531 -0.941361 -0.170367
2340931692 -0.954031 -0.141711
2342913853 -0.911834 -0.106738
2344896014 -0.898379 -0.037412
2346878175 -0.943141 -0.04851
2348860336 -0.950788 -0.022669
2350842497 -0.970829 0.020107
2352824658 -0.95249 -0.014794
2354806819 -0.923482 0.253399
2356788980 -0.88857 0.052722
2358771141 -0.903557 0.065098
2360753302 -0.940216 0.08005
2362735463 -0.9474 0.139716
2364717624 -0.94048 0.165143
2366699785 -0.939538 0.160292
2368681946 -0.879507 0.191594
2370664107 -0.905903 0.212503
2372646268 -0.916114 0.222699
2374628429 -0.932103 0.244817
2376610590 -0.931557 0.259401
2378592751 -0.886189 0.243647
2380574912 -0.86756 0.273671
2382557073 -0.834035 0.283709
2384539234 -0.867488 0.312573
2386521395 -0.886547 0.328156
2388503556 -0.889694 0.349831
2390485717 -0.873768 0.357597
2392467878 -0.849093 0.345719
2394450039 -0.793361 0.355323
2396432200 -0.803715 0.416067
2398414361 -0.829848 0.442035
2400396522 -0.714107 0.559287
2402378683 -0.466321 0.661969
2404360844 -0.695716 0.557841
2406343005 -0.121757 0.633711
2408325166 -0.303705 0.66307
2410307327 0.342139 0.469712
2412289488 -0.074486 0.708734
2414271649 -0.711265 0.626502
2416253810 0.199688 0.698621
2418235971 0.241788 0.710249
2420218132 0.572078 0.588395
2422200293 -0.334937 0.782611
2424182454 -0.129394 0.855063
2426164615 0.459167 0.844198
2428146776 0.476 0.88807
2430128937 0.674969 0.828264
2432111098 -0.402726 0.797738
2434093259 0.177513 1.008254
2436075420 0.534875 1.019828
2438057581 0.677604 1.033485
2440039742 0.703767 1.088691
2442021903 -0.419105 0.914059
2444004064 0.932096 0.953824
2445986225 0.28534 1.163656
2447968386 0.618132 1.214439
2449950547 -0.14502 1.202842
2451932708 -0.356201 1.117377
2453914869 0.082247 1.359363
2455897030 0.158248 1.31777
2457879191 -0.391099 1.001653
2459861352 0.091958 1.274631
2461843513 0.167502 1.252129
2463825674 -0.182617 1.075076
2465807835 -0.323986 0.918016
2467789996 -0.262656 0.89445
2469772157 0.033899 0.931632
2471754318 0.041283 0.903546
2473736479 0.09328 0.863525
2475718640 -0.232558 0.818478
2477700801 -0.006121 0.804818
2479682962 0.01939 0.748649
2481665123 0.155275 0.558751
2483647284 0.07715 0.645445
2485629445 -0.027123 0.743288
2487611606 0.219129 0.508171
2489593767 0.298767 0.372826
2491575928 0.326988 0.39949
2493558089 0.146171 0.674288
2495540250 0.32219 0.487234
2497522411 0.503929 0.255127
2499504572 0.628964 -0.074055
2501486733 0.68482 0.04989
2503468894 0.227078 0.833944
2505451055 0.710824 -0.578025
2507433216 0.614704 0.46798
2509415377 0.899762 -0.250774
2511397538 0.469536 0.763648
2513379699 0.533054 0.756013
2515361860 1.038614 0.115733
2517344021 1.057106 0.104736
2519326182 1.134227 -0.071763
2521308343 0.362257 0.878438
2523290504 1.085337 0.390893
2525272665 1.251831 0.272436
2527254826 0.74766 0.73806
2529236987 0.734002 0.737139
2531219148 0.545498 0.772388
2533201309 0.990243 0.524031
2535183470 0.987174 0.566656
2537165631 0.956339 0.592453
2539147792 0.938228 0.604543
2541129953 0.803175 0.639391
2543112114 0.822024 0.620237
2545094275 1.025273 0.384257
2547076436 0.883226 0.522063
2549058597 0.717855 0.635192
2551040758 0.659831 0.654897
2553022919 0.655653 0.645929
2555005080 0.819588 0.448552
2556987241 0.761452 0.406973
2558969402 0.724507 0.319573
2560951563 0.654435 0.533031
2562933724 0.670431 0.518396
2564915885 0.632339 0.218789
2566898046 0.576044 0.169031
2568880207 0.56157 0.16056
2570862368 0.631992 0.392416
2572844529 0.674691 0.343296
2574826690 0.471489 -0.044938
2576808851 0.444724 -0.124608
2578791012 0.3245 -0.265958
2580773173 0.760753 0.322022
2582755334 0.669071 0.026214
2584737495 0.353894 -0.388872
2586719656 0.203301 -0.560989
2588701817 0.134886 -0.666897
2590683978 0.798542 0.178689
2592666139 -0.093756 -0.900504
2594648300 0.479203 -0.645792
2596630461 -0.133754 -1.048671
2598612622 0.635052 -0.537785
2600594783 -1.342467 0.716397
2602576944 0.549363 -0.831014
2604559105 0.582913 -0.846323
2606541266 0.576302 -0.834702
2608523427 0.555669 -0.810124
2610505588 0.371579 -1.100596
2612487749 0.743657 -0.209302
2614469910 0.715733 -0.470106
2616452071 0.326882 -1.125668
2618434232 0.566072 -0.792304
2620416393 0.627368 -0.374778
2622398554 0.558129 -0.186014
2624380715 0.430343 -0.787747
2626362876 0.540856 -0.499441
2628345037 0.489324 -0.526783
2630327198 0.471317 -0.414191
2632309359 0.351818 -0.162711
2634291520 0.374758 -0.16571
2636273681 0.322329 -0.103828
2638255842 0.379176 -0.001821
2640238003 0.356919 0.097307
2642220164 0.116822 -0.070284
2644202325 0.345658 0.296018
2646184486 0.167455 0.256509
2648166647 0.322351 0.443665
2650148808 0.094627 0.330188
2652130969 0.018151 0.173099
2654113130 0.238168 0.600456
2656095291 0.23269 0.617103
2658077452 0.219313 0.618554
2660059613 0.06655 0.415512
2662041774 0.086634 0.45942
2664023935 0.170974 0.647895
2666006096 0.143159 0.621621
2667988257 0.11047 0.570159
2669970418 0.152138 0.493718
2671952579 0.16528 0.462264
2673934740 0.177093 0.40164
2675916901 0.037775 0.242354
2677899062 0.164611 0.20144
2679881223 0.371329 0.483041
2681863384 0.197582 0.011066
2683845545 0.301573 -0.00232
2685827706 0.496386 0.276719
2687809867 0.55212 0.238841
2689792028 0.13895 -0.542175
2691774189 0.447992 -0.366617
2693756350 0.654475 -0.020067
2695738511 0.688816 0.105026
2697720672 0.720062 0.056313
2699702833 0.240297 -1.004529
2701684994 0.516826 -0.933221
2703667155 0.337642 -1.140306
2705649316 0.867576 -0.24823
2707631477 0.858689 -0.07873
2709613638 0.659364 -0.982777
2711595799 0.71268 -1.007979
2713577960 0.901874 -0.761579
2715560121 1.018296 -0.304537
2717542282 0.97452 -0.125512
2719524443 0.877883 -0.925427
2721506604 0.846534 -0.867122
2723488765 0.714167 -1.140725
2725470926 1.010416 -0.080892
2727453087 1.012313 -0.069017
2729435248 1.077805 -0.648703
2731417409 1.054559 -0.553635
2733399570 0.97977 -0.472832
2735381731 0.902718 -0.058824
2737363892 0.91954 -0.081316
2739346053 0.907324 -0.433483
2741328214 0.863577 -0.414887
2743310375 0.760668 -0.437977
2745292536 0.878646 -0.113192
2747274697 0.686911 -0.33028
2749256858 0.702413 -0.327791
2751239019 0.427671 -0.385008
2753221180 0.439226 -0.395882
2755203341 0.937334 -0.198925
2757185502 0.213904 -0.409677
2759167663 0.142523 -0.4191
2761149824 0.763748 -0.356461
2763131985 0.253416 -0.541479
2765114146 -0.541955 -0.194905
2767096307 -0.303547 -0.520548
2769078468 0.332379 -0.654105
2771060629 0.69563 -0.493862
2773042790 -1.019797 0.076048
2775024951 -0.148312 -0.808031
2777007112 -0.786648 -0.654202
2778989273 -1.067014 -0.506708
2780971434 -0.869041 -0.757362
2782953595 0.155379 -0.930892
2784935756 0.334979 -0.857626
2786917917 -0.947634 -0.855432
2788900078 -0.934172 -0.90224
2790882239 -0.948213 -0.963919
2792864400 -1.175756 -0.84165
2794846561 -1.151932 -0.919035
2796828722 -0.899917 -1.069795
2798810883 -0.277002 -1.2454
2800793044 0.615349 -0.788947
2802775205 0.706319 -0.614391
2804757366 0.538983 -0.880054
2806739527 0.703887 -0.663683
2808721688 0.665038 -0.643671
2810703849 0.352662 -0.964855
2812686010 -0.542536 -1.358211
2814668171 -0.804805 -1.27434
2816650332 -0.526249 -1.37741
2818632493 -0.405493 -1.310337
2820614654 -0.449433 -1.180842
2822596815 -0.261577 -1.109147
2824578976 -0.229464 -1.102729
2826561137 -0.17403 -1.086701
2828543298 -0.058677 -1.062135
2830525459 -0.185007 -0.901069
2832507620 -0.088535 -0.842591
2834489781 -0.150232 -0.646739
2836471942 -0.16923 -0.530626
2838454103 -0.162074 -0.530168
2840436264 -0.231797 -0.368182
2842418425 -0.249184 -0.339405
2844400586 -0.322123 -0.096008
2846382747 -0.34665 0.032395
2848364908 -0.415202 -0.007716
2850347069 -0.451679 0.243586
2852329230 -0.550509 0.222345
2854311391 -0.582579 0.495385
2856293552 -0.600981 0.606662
2858275713 -0.722914 0.430652
2860257874 -0.751291 0.564047
2862240035 -0.81144 0.594074
2864222196 -0.764973 0.899439
2866204357 0.066643 -0.970817
2868186518 0.054745 -0.974168
2870168679 0.029208 -0.944329
2872150840 0.032568 -0.920288
2874133001 0.01182 -0.897971
2876115162 -0.053693 -0.933051
2878097323 0.031325 -0.952389
2880079484 -0.07261 -0.969251
2882061645 -0.053522 -0.937192
2884043806 -0.055049 -0.903516
2886025967 -0.08673 -0.89073
2888008128 -0.100101 -0.913733
2889990289 -0.174992 -0.947968
2891972450 -0.164232 -0.962244
2893954611 -0.191525 -0.916056
2895936772 -0.634985 -0.898372
2897918933 -0.198754 -0.890809
2899901094 -0.254906 -0.90801
2901883255 -0.289703 -0.914211
2903865416 -0.271736 -0.919027
2905847577 -0.28975 -0.906155
2907829738 -0.279236 -0.852383
2909811899 -0.309576 -0.816754
2911794060 -0.343898 -0.80071
2913776221 -0.380728 -0.821099
2915758382 -0.435111 -0.832035
2917740543 -0.42767 -0.840695
2919722704 -0.45401 -0.802991
2921704865 -0.459901 -0.760807
2923687026 -0.642326 -0.402805
2925669187 -0.565296 -0.688866
2927651348 -0.568383 -0.755107
2929633509 -0.601221 -0.780407
2931615670 -0.601632 -0.77143
2933597831 -0.603044 -0.735063
2935579992 -0.584669 -0.700631
2937562153 -0.605793 -0.670906
2939544314 -0.65745 -0.677033
2941526475 -0.677336 -0.663314
2943508636 -0.693559 -0.648601
2945490797 -0.668293 -0.648743
2947472958 -0.681383 -0.560473
2949455119 -0.673795 -0.545885
2951437280 -0.79105 -0.305311
2953419441 -0.746503 -0.52205
2955401602 -0.762239 -0.512871
2957383763 -0.772675 -0.458441
2959365924 -0.759656 -0.476086
2961348085 -0.715371 -0.442218
2963330246 -0.781367 -0.405513
2965312407 -0.786767 -0.457287
2967294568 -0.844738 -0.394595
2969276729 -0.816604 -0.42801
2971258890 -0.811097 -0.413406
2973241051 -0.800796 -0.377688
2975223212 -0.81006 -0.391649
2977205373 -0.82892 -0.347414
2979187534 -0.843153 -0.379484
2981169695 -0.795698 -0.390799
2983151856 -0.824299 -0.355703
2985134017 -0.765689 -0.346833
2987116178 -0.745978 -0.28763
2989098339 -0.798025 -0.283553
2991080500 -0.800997 -0.262609
2993062661 -0.847481 -0.19483
2995044822 -0.84479 -0.197296
2997026983 -0.920276 -0.041556
2999009144 -0.852137 -0.108238
3000991305 -0.452558 0.791164
3002973466 -0.979346 0.299971
3004955627 -0.963884 0.270348
3006937788 -0.944138 0.093039
3008919949 -0.824659 0.291965
3010902110 -0.695377 0.324787
3012884271 -0.613674 0.334082
3014866432 -0.800503 0.244183
3016848593 -0.710306 0.328365
3018830754 -0.583895 0.382876
3020812915 -0.71881 0.328421
3022795076 -0.750875 0.295584
3024777237 -0.603297 0.407869
3026759398 -0.339568 0.567462
3028741559 -0.292613 0.635726
3030723720 -0.243919 0.706313
3032705881 -0.202646 0.749874
3034688042 0.081675 0.851118
3036670203 -0.461741 0.678401
3038652364 0.131654 0.952747
3040634525 0.117131 0.999842
3042616686 -0.541364 0.799572
3044598847 -0.68866 0.658607
3046581008 -0.689984 0.67424
3048563169 0.052491 1.152394
3050545330 0.270012 1.165794
3052527491 0.05376 1.177725
3054509652 -0.664628 0.699673
3056491813 -0.620958 0.759492
3058473974 0.006771 1.210355
3060456135 0.169434 1.210817
3062438296 0.037798 1.165683
3064420457 -0.593731 0.839817
3066402618 -0.588923 0.871881
3068384779 -0.186561 1.230806
3070366940 -0.143174 1.250997
3072349101 -0.275139 1.131764
3074331262 -0.633759 0.662975
3076313423 -0.440877 0.93851
3078295584 -0.456744 0.941238
3080277745 -0.192093 1.087551
3082259906 -0.335761 1.009469
3084242067 -0.59692 0.72359
3086224228 -0.333893 0.915222
3088206389 -0.406148 0.843653
3090188550 -0.205079 0.889037
3092170711 -0.295379 0.86052
3094152872 -0.511333 0.777186
3096135033 -0.079335 0.70626
3098117194 -0.230889 0.751197
3100099355 0.002166 0.585042
3102081516 -0.316383 0.80274
3104063677 -0.310577 0.826502
3106045838 0.096846 0.651124
3108027999 -0.154001 0.817768
3110010160 -0.216186 0.834181
3111992321 0.342274 0.570949
3113974482 0.717036 -0.009504
3115956643 0.063418 0.830916
3117938804 0.096256 0.874433
3119920965 -0.016801 0.90968
3121903126 0.798683 0.514446
3123885287 1.028166 0.304983
3125867448 1.258966 -0.252234
3127849609 0.102343 0.913742
3129831770 0.168326 0.927677
3131813931 1.048304 0.565955
3133796092 1.207966 0.405194
3135778253 1.307384 0.213132
3137760414 0.228096 0.916072
3139742575 0.471832 0.919155
3141724736 1.034413 0.72531
3143706897 1.203961 0.643243
3145689058 1.278935 0.570933
3147671219 0.234234 0.96959
3149653380 0.253452 0.951373
3151635541 0.85666 0.852271
3153617702 0.95952 0.834151
3155599863 1.137887 0.699266
3157582024 0.237526 1.017596
3159564185 0.376774 1.008834
3161546346 0.664748 0.907317
3163528507 0.704824 0.846484
3165510668 0.685021 0.875381
3167492829 0.156876 0.964888
3169474990 0.388467 0.979335
3171457151 0.367505 0.958548
3173439312 0.590632 0.744197
3175421473 0.455898 0.764867
3177403634 0.209298 0.90431
3179385795 0.496187 0.587207
3181367956 0.372704 0.81045
3183350117 0.260682 0.916924
3185332278 0.388886 0.720705
3187314439 0.411576 0.29781
3189296600 0.463103 0.416438
3191278761 0.481975 0.605385
3193260922 0.429831 0.764931
3195243083 0.574416 0.482675
3197225244 0.61236 0.40743
3199207405 0.571546 -0.243752
3201189566 0.402171 0.784745
3203171727 0.380797 0.852531
3205153888 0.40445 0.873247
3207136049 0.389051 0.906618
3209118210 0.503058 0.79173
3211100371 0.335872 -1.347185
3213082532 0.623279 -1.144933
3215064693 0.297531 -1.450091
3217046854 0.400525 -1.510387
3219029015 0.818004 -1.307781
3221011176 0.624482 -1.459575
3222993337 0.878084 -1.230775
3224975498 0.68448 -1.386647
3226957659 0.759224 -1.332424
3228939820 1.071672 -1.125533
3230921981 1.048015 -1.307835
3232904142 1.236924 -0.94682
3234886303 1.154714 -0.98391
3236868464 1.135507 -0.91668
3238850625 1.099484 -0.837582
3240832786 1.187968 -0.783677
3242814947 1.295756 -0.669642
3244797108 1.313116 -0.555135
3246779269 1.287735 -0.424828
3248761430 1.234928 -0.184289
3250743591 1.13791 -0.236507
3252725752 1.162122 -0.073117
3254707913 1.157909 -0.145449
3256690074 1.133157 -0.057167
3258672235 1.064182 0.063559
3260654396 0.689517 0.618987
3262636557 0.699637 0.570495
3264618718 0.72179 0.544964
3266600879 0.774041 0.559446
3268583040 0.804907 0.579088
3270565201 0.810241 0.585337
3272547362 0.806317 0.593238
3274529523 0.786398 0.54186
3276511684 0.755224 0.495549
3278493845 0.799925 0.50592
3280476006 0.848136 0.476874
3282458167 0.847737 0.487764
3284440328 0.865253 0.368689
3286422489 0.850398 0.457927
3288404650 0.811666 0.419732
3290386811 0.871833 0.09954
3292368972 0.857282 0.404237
3294351133 0.892845 0.384705
3296333294 0.900425 0.354303
3298315455 0.874099 0.415823
3300297616 0.844882 0.345318
3302279777 0.849148 0.300207
3304261938 0.85635 0.36265
3306244099 0.890281 0.319737
3308226260 0.910022 0.279605
3310208421 0.906467 0.277564
3312190582 0.908496 0.269801
3314172743 0.87891 0.220857
3316154904 0.910213 0.180256
3318137065 0.93097 0.196522
3320119226 0.940564 0.175805
3322101387 1.009446 -0.110866
3324083548 -1.200729 -0.854263
3326065709 0.883803 0.13546
3328047870 0.905866 0.107106
3330030031 0.959757 0.070896
3332012192 0.94278 0.131898
3333994353 0.973024 0.121805
3335976514 0.960745 0.099546
3337958675 0.961029 0.054078
3339940836 0.922827 0.079131
3341922997 0.965066 0.094698
3343905158 0.988655 0.072273
3345887319 1.019673 0.000736
3347869480 0.94921 0.115815
3349851641 0.918289 0.069467
3351833802 0.884957 0.038681
3353815963 0.931035 0.021821
3355798124 0.955555 -0.01727
3357780285 0.978398 -0.045943
3359762446 0.979108 -0.054096
3361744607 0.953907 -0.103676
3363726768 0.91281 -0.145107
3365708929 0.932626 -0.16877
3367691090 0.966396 -0.207418
3369673251 1.005915 -0.231509
3371655412 0.986185 -0.241695
3373637573 0.958321 -0.251995
3375619734 0.904548 -0.260997
3377601895 0.865694 -0.292401
3379584056 0.912656 -0.327945
3381566217 0.905086 -0.371915
3383548378 0.918966 -0.354863
3385530539 0.939533 -0.321562
3387512700 0.880711 -0.321368
3389494861 0.830514 -0.307331
3391477022 0.706869 -0.486224
3393459183 0.854551 -0.377079
3395441344 0.838822 -0.432826
3397423505 0.833593 -0.445761
3399405666 0.849087 -0.44898
3401387827 -1.296615 0.353986
3403369988 0.693743 -0.660397
3405352149 -1.301076 -0.486828
3407334310 -0.529354 -1.219058
3409316471 -1.185053 -0.813128
3411298632 -0.919602 -1.006063
3413280793 0.662165 -0.750443
3415262954 -1.126063 -0.72549
3417245115 -0.608886 -1.222723
3419227276 0.68527 -0.792727
3421209437 0.076088 -1.270455
3423191598 -0.755997 -1.140092
3425173759 -0.315537 -1.231197
3427155920 0.351007 -1.045567
3429138081 0.632479 -0.800238
3431120242 -0.340121 -1.23681
3433102403 -0.09298 -1.253721
3435084564 -0.444302 -1.136949
3437066725 0.533797 -0.919687
3439048886 0.466599 -0.867576
3441031047 -0.092758 -1.003887
3443013208 -0.079635 -1.012514
3444995369 -0.064996 -0.988022
3446977530 0.55954 -0.85518
3448959691 0.342445 -0.920955
3450941852 0.18265 -0.873685
3452924013 -0.209908 -0.658001
3454906174 -0.188393 -0.704465
3456888335 0.422759 -0.892879
3458870496 -0.455873 -0.404902
3460852657 -0.170507 -0.776382
3462834818 -0.524601 -0.368624
3464816979 0.157616 -0.810256
3466799140 -0.079525 -0.798617
3468781301 -0.596586 -0.483706
3470763462 -0.853612 -0.052281
3472745623 -0.847617 -0.200345
3474727784 0.154237 -0.908506
3476709945 -0.573774 -0.66321
3478692106 -0.603764 -0.632875
3480674267 -1.094346 0.427601
3482656428 -1.128344 0.037635
3484638589 -0.034328 -0.943984
3486620750 -1.183927 0.246034
3488602911 -0.895976 -0.59936
3490585072 -0.382503 -0.870003
3492567233 -0.10857 -0.928862
3494549394 -1.108648 -0.425917
3496531555 -1.098874 -0.440649
3498513716 -1.097693 -0.428471
3500495877 -1.101427 -0.438923
3502478038 -1.140533 -0.257778
3504460199 -0.815895 -0.775148
3506442360 -1.106272 -0.51626
3508424521 -1.232332 -0.238195
3510406682 -1.159234 -0.423366
3512388843 -0.859626 -0.762867
3514371004 -0.514255 -0.92124
3516353165 -0.700071 -0.80024
3518335326 -1.051234 -0.513138
3520317487 -1.146094 -0.34619
3522299648 -1.064608 -0.512139
3524281809 -0.4892 -0.936275
3526263970 -0.500251 -0.880543
3528246131 -0.813255 -0.558817
3530228292 -0.905083 -0.412149
3532210453 -0.830821 -0.596952
3534192614 -0.621344 -0.812731
3536174775 -0.606826 -0.789474
3538156936 -0.732697 -0.536737
3540139097 -0.713244 -0.387373
3542121258 -0.702421 -0.342151
3544103419 -0.527307 -0.796655
3546085580 -0.742451 -0.314805
3548067741 -0.723626 -0.482293
3550049902 -0.663061 0.189573
3552032063 -0.729144 0.002423
3554014224 -0.585262 -0.675708
3555996385 -0.596278 0.482093
3557978546 -0.835607 -0.029885
3559960707 -0.573316 0.669814
3561942868 -0.770374 0.42508
3563925029 -0.708284 -0.594628
3565907190 -0.540871 0.827416
3567889351 -0.890662 0.24118
3569871512 -0.541663 0.957017
3571853673 -0.93974 -0.115242
3573835834 -0.916477 -0.270568
3575817995 -0.799435 0.72469
3577800156 -0.87612 0.575107
3579782317 -0.895924 -0.179559
3581764478 -1.02303 0.242571
3583746639 -0.68673 0.991598
3585728800 -1.026891 0.016142
3587710961 -1.060917 0.191227
3589693122 -0.887224 -0.337175
3591675283 -0.83448 0.780771
3593657444 -1.004155 0.502594
3595639605 -0.849302 0.829571
3597621766 -1.046276 0.000672
3599603927 -0.871924 -0.302448
3601586088 0.672007 0.305914
3603568249 -0.979136 0.233295
3605550410 -0.868501 0.583034
3607532571 -0.899699 0.55719
3609514732 -0.932327 0.456995
3611496893 -0.878008 0.48066
3613479054 -0.883617 0.379738
3615461215 -0.799139 0.408861
3617443376 -0.759482 0.400237
3619425537 -0.789743 0.355485
3621407698 -0.718607 0.391123
3623389859 -0.734336 0.329418
3625372020 -0.610918 0.366238
3627354181 -0.54599 0.360291
3629336342 -0.51307 0.356595
3631318503 -0.391967 0.428112
3633300664 -0.409732 0.4653
3635282825 -0.248271 0.537418
3637264986 -0.167633 0.586862
3639247147 -0.213191 0.616658
3641229308 -0.017789 0.672074
3643211469 -0.084807 0.717138
3645193630 0.177934 0.766824
3647175791 0.214851 0.832576
3649157952 0.102596 0.888047
3651140113 0.395411 0.878256
3653122274 0.403736 0.903451
3655104435 -0.830933 0.210726
3657086596 -0.841713 0.216787
3659068757 -0.857397 0.215442
3661050918 -0.864816 0.235376
3663033079 -0.812948 0.26469
3665015240 -0.820221 0.269916
3666997401 -0.797025 0.252255
3668979562 -0.797663 0.296049
3670961723 -0.795328 0.322588
3672943884 -0.808038 0.317106
3674926045 -0.789437 0.344306
3676908206 -0.769192 0.372691
3678890367 -0.761146 0.343027
3680872528 -0.730391 0.515214
3682854689 -0.750366 0.433386
3684836850 -0.776024 0.449648
3686819011 -0.777787 0.449928
3688801172 -0.740967 0.466862
3690783333 -0.707049 0.488906
3692765494 -0.690362 0.50638
3694747655 -0.688827 0.543726
3696729816 -0.695887 0.550153
3698711977 -0.704979 0.558973
3700694138 -0.678396 0.566396
3702676299 -0.635105 0.569665
3704658460 -0.597669 0.567142
3706640621 -0.608409 0.60512
3708622782 -0.515177 0.712823
3710604943 -0.832759 0.284312
3712587104 -0.602617 0.664608
3714569265 -0.573454 0.664407
3716551426 -0.545007 0.653138
3718533587 -0.547129 0.686857
3720515748 -0.550218 0.725858
3722497909 -0.541293 0.751891
3724480070 -0.56893 0.762021
3726462231 -0.53783 0.769028
3728444392 -0.524562 0.728616
3730426553 -0.511872 0.731466
3732408714 -0.489986 0.771362
3734390875 -0.428599 0.787673
3736373036 -0.448263 0.79961
3738355197 -0.443998 0.797151
3740337358 -0.396528 0.783606
3742319519 -0.369734 0.76572
3744301680 -0.382315 0.799757
3746283841 -0.32461 0.826032
3748266002 -0.318393 0.842957
3750248163 -0.339887 0.825496
3752230324 -0.28403 0.85985
3754212485 -0.261792 0.823056
3756194646 -0.100502 0.892316
3758176807 -0.291657 0.830708
3760158968 -0.225199 0.867408
3762141129 -0.249685 0.858785
3764123290 -0.206221 0.843216
3766105451 -0.174614 0.827129
3768087612 -0.175334 0.824122
3770069773 -0.177284 0.841636
3772051934 -0.15109 0.868149
3774034095 -0.122711 0.881228
3776016256 -0.145447 0.871408
3777998417 -0.109814 0.872393
3779980578 -0.050733 0.854286
3781962739 -0.078538 0.910353
3783944900 -0.097671 0.951895
3785927061 -0.082325 0.977568
3787909222 -0.117735 0.98625
3789891383 -0.116897 0.985748
3791873544 -0.092403 0.94441
3793855705 -0.071437 0.931794
3795837866 -0.058565 0.960585
3797820027 -0.010584 0.972715
3799802188 0.029137 0.966876
3801784349 -0.703628 -0.157709
3803766510 0.420007 0.75134
3805748671 0.267482 0.824464
3807730832 0.405899 0.761363
3809712993 0.7169 0.252584
3811695154 0.707728 0.355412
3813677315 0.580274 0.628363
3815659476 0.410643 0.774701
3817641637 0.623392 0.483673
3819623798 0.667165 0.447608
3821605959 0.592178 -0.607033
3823588120 0.86493 -0.003378
3825570281 0.379153 0.823346
3827552442 0.575231 -0.776691
3829534603 0.821852 0.310734
3831516764 0.548697 -0.876944
3833498925 0.734186 0.483441
3835481086 0.815616 0.428643
3837463247 0.928485 -0.532073
3839445408 0.897423 -0.58456
3841427569 0.896204 -0.557932
3843409730 0.709451 0.581873
3845391891 0.971988 0.141365
3847374052 1.043351 -0.109108
3849356213 0.880421 -0.72712
3851338374 1.026766 -0.494345
3853320535 0.602671 0.731456
3855302696 0.806756 -0.748513
3857284857 1.047136 -0.045026
3859267018 0.987301 -0.560883
3861249179 0.932109 0.45062
3863231340 0.828022 0.578025
3865213501 1.040157 -0.249471
3867195662 0.956229 -0.368319
3869177823 0.983988 -0.042477
3871159984 0.815387 0.551173
3873142145 0.990527 0.292781
3875124306 1.057851 0.021631
3877106467 0.791523 0.570558
3879088628 0.784231 0.52348
3881070789 0.827578 0.370901
3883052950 0.934798 0.135324
3885035111 0.988489 0.131768
3887017272 1.006296 0.002141
3888999433 0.984286 0.147364
3890981594 0.940294 0.06559
3892963755 0.77508 0.450491
3894945916 0.833246 -0.220508
3896928077 0.851913 -0.276732
3898910238 0.910848 0.385221
3900892399 0.857085 0.493927
3902874560 0.749552 0.593147
3904856721 0.769023 -0.380338
3906838882 0.697784 -0.430849
3908821043 0.780822 -0.337652
3910803204 0.81838 0.368005
3912785365 0.793151 0.45314
3914767526 0.466129 -0.697385
3916749687 0.421977 -0.735556
3918731848 0.684954 -0.493219
3920714009 0.89092 0.10621
3922696170 0.919715 0.069858
3924678331 0.49381 -0.795705
3926660492 0.246909 -0.908181
3928642653 0.459903 -0.81443
3930624814 0.918786 -0.012321
3932606975 0.847434 -0.294169
3934589136 0.467836 -0.889844
3936571297 0.042317 -1.040944
3938553458 0.254663 -0.996997
3940535619 0.956194 0.12209
3942517780 0.623575 -0.752895
3944499941 0.626859 -0.753662
3946482102 -0.051667 -1.071663
3948464263 0.374884 -1.020457
3950446424 0.990617 0.086674
3952428585 0.090643 -1.111525
3954410746 0.723413 -0.725591
3956392907 0.144591 -1.025222
3958375068 0.843813 -0.530173
3960357229 0.96696 0.006394
3962339390 0.691791 -0.848446
3964321551 0.708498 -0.803552
3966303712 0.952631 -0.002153
3968285873 0.823768 -0.519669
3970268034 0.400942 -0.928696
3972250195 0.697203 -0.803467
3974232356 0.977152 -0.364879
3976214517 1.015282 -0.226619
3978196678 0.811427 -0.631208
3980178839 0.783397 -0.631931
3982161000 0.398859 -0.848088
3984143161 0.624551 -0.749249
3986125322 1.001531 -0.13654
3988107483 0.74423 -0.735427
3990089644 0.708924 -0.724078
3992071805 0.222267 -0.928421
3994053966 0.479678 -0.752062
3996036127 0.934813 -0.204587
3998018288 0.067964 -0.913659
4000000449 0.682404 -0.698322
