# HZ S RI R 50
2000000000 -1.50475 0.119953
2001982161 0.991692 0.252893
2003964322 1.002696 0.181294
2005946483 1.057134 0.182403
2007928644 1.118438 0.179733
2009910805 1.146221 0.164311
2011892966 1.200863 0.005722
2013875127 0.793069 0.689857
2015857288 1.184286 -0.005967
2017839449 1.240565 -0.152451
2019821610 0.959781 0.548338
2021803771 1.101411 0.411759
2023785932 0.737367 0.74212
2025768093 1.271066 0.019739
2027750254 1.149779 0.173734
2029732415 1.153008 -0.245504
2031714576 0.896825 0.521252
2033696737 0.879505 0.572573
2035678898 1.13062 0.00075
2037661059 1.091683 0.114422
2039643220 1.057211 0.077127
2041625381 0.874552 0.461802
2043607542 0.89919 0.455251
2045589703 1.006233 0.025895
2047571864 0.970323 0.028921
2049554025 0.907135 -0.108519
2051536186 0.871338 0.478619
2053518347 0.880607 0.25008
2055500508 0.847407 0.004873
2057482669 0.642099 -0.334185
2059464830 0.715025 -0.279681
2061446991 0.907401 0.374828
2063429152 0.393269 -0.534243
2065411313 0.761029 -0.188344
2067393474 0.415216 -0.534348
2069375635 0.834518 -0.167096
2071357796 0.95085 0.234973
2073339957 0.531731 -0.673838
2075322118 0.481072 -0.749713
2077304279 0.619662 -0.633974
2079286440 0.927352 0.022788
2081268601 0.977226 0.132845
2083250762 0.706788 -0.775953
2085232923 1.020505 -0.191165
2087215084 1.040177 0.162742
2089197245 0.659421 -0.991813
2091179406 0.667661 -0.920091
2093161567 0.986973 -0.211885
2095143728 0.931723 -0.593186
2097125889 0.986149 0.106848
2099108050 0.687913 -1.095459
2101090211 0.795746 -0.932815
2103072372 0.494032 -1.256064
2105054533 1.012678 -0.329762
2107036694 1.005612 -0.079161
2109018855 0.72186 -1.154119
2111001016 0.863199 -0.98461
2112983177 0.583876 -1.208301
2114965338 1.056598 -0.252154
2116947499 0.994977 -0.291621
2118929660 0.667606 -0.969926
2120911821 0.814146 -0.846458
2122893982 0.544267 -1.012146
2124876143 1.015427 -0.313514
2126858304 0.984886 -0.308101
2128840465 0.543588 -0.789438
2130822626 0.611923 -0.696911
2132804787 0.349729 -0.77008
2134786948 0.855956 -0.50339
2136769109 0.892009 -0.424144
2138751270 0.342698 -0.708699
2140733431 0.369278 -0.662623
2142715592 0.167623 -0.624313
2144697753 0.879758 -0.375836
2146679914 0.346374 -0.670773
2148662075 0.329995 -0.68875
2150644236 -0.202897 -0.616376
2152626397 0.053264 -0.673658
2154608558 0.744702 -0.443334
2156590719 -0.369259 -0.589866
2158572880 0.065273 -0.753627
2160555041 0.734412 -0.560501
2162537202 0.200319 -0.839035
2164519363 -0.887977 -0.516147
2166501524 -0.292438 -0.875425
2168483685 0.454178 -0.776777
2170465846 0.709895 -0.652648
2172448007 -1.094854 -0.617609
2174430168 0.069824 -1.046678
2176412329 -0.479274 -1.093416
2178394490 -0.734877 -0.983179
2180376651 -0.239254 -1.064473
2182358812 0.000486 -1.097914
2184340973 0.412041 -0.96735
2186323134 -0.44398 -1.2017
2188305295 -0.475498 -1.194027
2190287456 -0.427016 -1.173377
2192269617 -0.559515 -1.103135
2194251778 -0.603711 -1.107931
2196233939 -0.360523 -1.192346
2198216100 -0.125435 -1.238179
2200198261 0.57087 -0.86519
2202180422 0.635252 -0.79346
2204162583 0.624157 -0.730717
2206144744 0.582863 -0.736988
2208126905 -0.520727 -1.094302
2210109066 -0.412333 -1.077355
2212091227 -0.401943 -1.026734
2214073388 -0.453139 -0.898408
2216055549 -0.400507 -0.802701
2218037710 -0.292238 -0.771096
2220019871 -0.404477 -0.652621
2222002032 -0.34631 -0.701338
2223984193 -0.448959 -0.554916
2225966354 -0.443314 -0.486672
2227948515 -0.417243 -0.505872
2229930676 -0.4682 -0.278794
2231912837 -0.454704 -0.386448
2233894998 -0.555578 -0.155311
2235877159 -0.599806 -0.102235
2237859320 -0.615583 -0.202399
2239841481 -0.667687 0.052622
2241823642 -0.692941 -0.06167
2243805803 -0.720844 0.011452
2245787964 -0.80382 0.235809
2247770125 -0.86899 0.113274
2249752286 -0.953344 0.08975
2251734447 -0.993066 0.124405
2253716608 -0.996765 0.39956
2255698769 -1.050076 0.189746
2257680930 -0.639016 1.213739
2259663091 0.102261 -0.943019
2261645252 0.060118 -0.978376
2263627413 0.114869 -0.961353
2265609574 0.017668 -0.942711
2267591735 0.013541 -0.93103
2269573896 0.033848 -0.903362
2271556057 -0.031079 -0.955359
2273538218 -0.058916 -0.984264
2275520379 -0.080196 -0.968247
2277502540 -0.113839 -0.979558
2279484701 -0.173379 -0.944869
2281466862 -0.174699 -0.943522
2283449023 -0.203555 -0.99004
2285431184 -0.187169 -0.989597
2287413345 -0.181639 -0.985974
2289395506 -0.377315 -0.984152
2291377667 -0.21493 -0.933769
2293359828 -0.234596 -0.892018
2295341989 -0.264509 -0.922592
2297324150 -0.302933 -0.951989
2299306311 -0.307119 -0.964691
2301288472 -0.314968 -0.96138
2303270633 -0.30286 -0.946145
2305252794 -0.321833 -0.898785
2307234955 -0.326196 -0.876027
2309217116 -0.358409 -0.896865
2311199277 -0.39916 -0.896757
2313181438 -0.402072 -0.895113
2315163599 -0.413941 -0.575952
2317145760 -0.642736 -0.384685
2319127921 -0.407978 -0.765865
2321110082 -0.481309 -0.761997
2323092243 -0.507739 -0.760137
2325074404 -0.527057 -0.780995
2327056565 -0.55813 -0.753684
2329038726 -0.589202 -0.717863
2331020887 -0.535864 -0.70548
2333003048 -0.586211 -0.641611
2334985209 -0.645259 -0.665348
2336967370 -0.637044 -0.710015
2338949531 -0.666719 -0.649218
2340931692 -0.701782 -0.615853
2342913853 -0.683527 -0.591274
2344896014 -0.688587 -0.580519
2346878175 -0.749637 -0.565965
2348860336 -0.779399 -0.569485
2350842497 -0.774257 -0.595953
2352824658 -0.787972 -0.563818
2354806819 -0.803196 -0.548626
2356788980 -0.726635 -0.561343
2358771141 -0.804906 -0.505354
2360753302 -0.851472 -0.495437
2362735463 -0.820048 -0.532036
2364717624 -0.848804 -0.466887
2366699785 -0.860817 -0.438189
2368681946 -0.858769 -0.387031
2370664107 -0.838693 -0.38156
2372646268 -0.920157 -0.368771
2374628429 -0.93101 -0.373823
2376610590 -0.921533 -0.368715
2378592751 -0.931432 -0.335939
2380574912 -0.899275 -0.326269
2382557073 -0.881392 -0.327952
2384539234 -0.925046 -0.270875
2386521395 -0.961148 -0.27815
2388503556 -0.937153 -0.297865
2390485717 -0.935627 -0.245066
2392467878 -0.910099 -0.214564
2394450039 -0.874018 -0.172732
2396432200 -0.911745 -0.158838
2398414361 -0.941955 -0.141016
2400396522 0.329289 -0.299434
2402378683 -0.84541 0.155354
2404360844 -0.478505 0.403986
2406343005 -0.401243 0.421567
2408325166 -0.742594 0.219794
2410307327 -0.865701 0.102424
2412289488 -0.096569 0.594524
2414271649 -0.473073 0.533508
2416253810 0.18343 0.700308
2418235971 -0.635948 0.433356
2420218132 -0.629434 0.448184
2422200293 -0.19699 0.764141
2424182454 -0.031626 0.836264
2426164615 -0.223561 0.808098
2428146776 -0.700487 0.445338
2430128937 -0.54821 0.565901
2432111098 -0.158694 0.797723
2434093259 0.136434 0.961658
2436075420 0.106721 1.009077
2438057581 -0.792632 0.412358
2440039742 -0.20213 1.056944
2442021903 -0.506623 0.909836
2444004064 0.097281 1.243758
2445986225 -0.546993 0.920017
2447968386 -0.763263 0.644123
2449950547 -0.322096 1.212018
2451932708 -0.461409 1.120285
2453914869 -0.376526 1.123291
2455897030 -0.712754 0.73578
2457879191 -0.725981 0.619754
2459861352 -0.488719 0.971473
2461843513 -0.451527 1.016744
2463825674 -0.383366 1.019713
2465807835 -0.736698 0.504138
2467789996 -0.512957 0.82251
2469772157 -0.534679 0.728455
2471754318 -0.638319 0.569581
2473736479 -0.605695 0.618279
2475718640 -0.540969 0.651808
2477700801 -0.474006 0.647643
2479682962 -0.437377 0.616906
2481665123 -0.430525 0.578215
2483647284 -0.338339 0.576929
2485629445 -0.404622 0.611146
2487611606 -0.324331 0.619716
2489593767 0.016581 0.456614
2491575928 -0.064027 0.56236
2493558089 -0.296037 0.648805
2495540250 -0.332612 0.63011
2497522411 -0.307896 0.686264
2499504572 0.218006 0.554554
2501486733 0.515659 0.368741
2503468894 0.473644 0.498364
2505451055 -0.362637 0.75369
2507433216 -0.038348 0.760364
2509415377 0.341723 0.719113
2511397538 0.918436 0.44889
2513379699 0.964204 0.474482
2515361860 -0.322686 0.813113
2517344021 0.082401 0.880394
2519326182 0.475753 0.860826
2521308343 0.982626 0.660102
2523290504 1.045941 0.716288
2525272665 -0.196974 0.823365
2527254826 0.442734 0.935903
2529236987 0.471092 0.92871
2531219148 0.860837 0.796839
2533201309 0.673576 0.831769
2535183470 -0.083234 0.807385
2537165631 0.790503 0.869834
2539147792 0.543907 0.933951
2541129953 0.738939 0.877019
2543112114 0.096373 0.882736
2545094275 0.131438 0.899927
2547076436 0.51346 0.909735
2549058597 0.588102 0.905837
2551040758 0.482504 0.947692
2553022919 0.168661 0.938972
2555005080 0.1752 0.919086
2556987241 0.349132 0.873288
2558969402 0.296143 0.847705
2560951563 0.168457 0.886829
2562933724 0.382702 0.753686
2564915885 0.392802 0.524734
2566898046 0.289888 0.806971
2568880207 0.319338 0.696701
2570862368 0.19154 0.859512
2572844529 0.349506 0.282017
2574826690 0.365042 0.187557
2576808851 0.297399 -0.039175
2578791012 0.381355 0.678453
2580773173 0.399486 0.651487
2582755334 0.38625 -0.21913
2584737495 0.426671 -0.290047
2586719656 0.484589 -0.380918
2588701817 0.54657 0.478272
2590683978 0.542975 0.488141
2592666139 0.697824 -0.371654
2594648300 0.648884 -0.652949
2596630461 0.658637 -0.669019
2598612622 0.669229 0.359695
2600594783 0.695144 0.267848
2602576944 0.546218 0.520043
2604559105 0.592186 0.471179
2606541266 0.875157 -0.829235
2608523427 0.859362 -0.820166
2610505588 0.834939 -1.003795
2612487749 1.006439 -0.740306
2614469910 1.006535 -0.870602
2616452071 1.040343 -0.748251
2618434232 1.014733 -0.437468
2620416393 0.926046 -0.506318
2622398554 0.869193 -0.321733
2624380715 0.852302 -0.332328
2626362876 0.796056 -0.197033
2628345037 0.733157 -0.111943
2630327198 0.666039 -0.078947
2632309359 0.562186 0.033004
2634291520 0.498855 0.099822
2636273681 0.44154 0.193201
2638255842 0.341567 0.276442
2640238003 0.302403 0.391153
2642220164 0.171462 0.429101
2644202325 0.125472 0.532458
2646184486 0.087256 0.594171
2648166647 -0.025244 0.600961
2650148808 -0.031216 0.734725
2652130969 -0.022348 0.844003
2654113130 -0.104592 0.104255
2656095291 -0.137975 0.140718
2658077452 -0.157708 0.179493
2660059613 -0.179347 0.221003
2662041774 -0.18656 0.281711
2664023935 -0.193569 0.328106
2666006096 -0.200953 0.37757
2667988257 -0.188208 0.422117
2669970418 -0.186085 0.461677
2671952579 -0.147622 0.487926
2673934740 -0.129272 0.54835
2675916901 -0.107805 0.602345
2677899062 -0.08785 0.647837
2679881223 -0.071069 0.682629
2681863384 -0.054326 0.685718
2683845545 -0.034309 0.708978
2685827706 0.110883 0.659739
2687809867 0.016682 0.766185
2689792028 0.053134 0.777783
2691774189 0.067991 0.7994
2693756350 0.092912 0.773681
2695738511 0.152496 0.748683
2697720672 0.161392 0.772998
2699702833 0.207455 0.772636
2701684994 0.25744 0.772567
2703667155 0.263261 0.801695
2705649316 0.2891 0.778932
2707631477 0.336295 0.73682
2709613638 0.528442 0.642274
2711595799 0.359776 0.748901
2713577960 0.53984 0.91939
2715560121 0.414804 0.74579
2717542282 0.470542 0.715092
2719524443 0.470564 0.730742
2721506604 0.473585 0.706704
2723488765 0.531042 0.682255
2725470926 0.526688 0.717254
2727453087 0.547296 0.720223
2729435248 0.613964 0.684645
2731417409 0.697234 0.646477
2733399570 0.592459 0.630414
2735381731 0.614829 0.602422
2737363892 0.686383 0.634352
2739346053 0.700892 0.675144
2741328214 0.708228 0.665536
2743310375 0.715498 0.661074
2745292536 0.686263 0.644089
2747274697 0.671094 0.593134
2749256858 0.725039 0.573296
2751239019 0.760108 0.583556
2753221180 0.775257 0.568561
2755203341 0.797494 0.521062
2757185502 0.800047 0.473844
2759167663 0.79455 0.447565
2761149824 0.80439 0.377792
2763131985 0.85103 0.375137
2765114146 0.896924 0.36602
2767096307 0.88188 0.344049
2769078468 0.895453 0.297764
2771060629 0.861347 0.337169
2773042790 0.867488 0.250601
2775024951 0.899196 0.205505
2777007112 0.913126 0.036148
2778989273 0.916625 0.239341
2780971434 0.918018 0.171667
2782953595 0.913014 0.170273
2784935756 0.872272 0.18204
2786917917 0.88691 0.075736
2788900078 0.934311 0.090996
2790882239 0.942005 0.137506
2792864400 0.946516 0.036888
2794846561 0.958877 0.032175
2796828722 0.889084 0.112602
2798810883 0.898953 0.035478
2800793044 -1.487872 -0.508593
2802775205 0.943343 -0.723064
2804757366 0.997452 -0.625189
2806739527 0.267608 -1.478199
2808721688 0.526059 -1.326592
2810703849 0.175089 -1.42174
2812686010 1.011827 -0.520814
2814668171 1.019803 -0.737826
2816650332 0.674573 -1.338101
2818632493 0.841526 -1.101234
2820614654 0.760938 -1.06294
2822596815 0.944539 -0.286403
2824578976 0.917871 -0.636703
2826561137 0.94891 -0.626717
2828543298 0.815357 -0.771983
2830525459 0.706795 -0.750076
2832507620 0.92794 -0.328181
2834489781 0.379155 -0.602139
2836471942 0.596148 -0.537155
2838454103 0.396145 -0.551522
2840436264 0.507918 -0.576373
2842418425 0.848281 -0.463539
2844400586 0.09657 -0.473201
2846382747 -0.035624 -0.402321
2848364908 -0.128596 -0.381276
2850347069 0.436219 -0.625058
2852329230 0.514538 -0.652136
2854311391 -0.369125 -0.500863
2856293552 -0.643348 -0.349957
2858275713 -0.756902 -0.307453
2860257874 0.598153 -0.615257
2862240035 -0.709073 -0.525634
2864222196 -0.571472 -0.703432
2866204357 -0.025125 -0.866743
2868186518 -0.084389 -0.921663
2870168679 -1.171727 -0.331675
2872150840 -0.71287 -0.76064
2874133001 -0.389773 -0.910351
2876115162 0.418045 -0.82866
2878097323 -0.876194 -0.887205
2880079484 -0.86412 -0.991804
2882061645 -1.431989 -0.431323
2884043806 -1.054905 -0.873024
2886025967 0.422826 -0.895374
2888008128 -1.087933 -1.038448
2889990289 -1.2035 -0.994319
2891972450 -1.300134 -0.937237
2893954611 0.199985 -1.11852
2895936772 -0.041947 -1.168833
2897918933 -0.606072 -1.166076
2899901094 -0.761166 -1.11679
2901883255 -0.709216 -1.167598
2903865416 0.377483 -0.949154
2905847577 -0.473915 -1.228796
2907829738 -0.116603 -1.187577
2909811899 -0.660114 -1.005363
2911794060 -0.097385 -1.090505
2913776221 0.148277 -1.052891
2915758382 -0.31883 -1.111345
2917740543 -0.183518 -1.094716
2919722704 -0.12554 -1.021224
2921704865 0.185497 -0.941619
2923687026 -0.004431 -0.852045
2925669187 -0.187277 -0.716823
2927651348 -0.223647 -0.66076
2929633509 -0.287616 -0.471858
2931615670 0.125802 -0.949322
2933597831 -0.34073 -0.386257
2935579992 -0.321189 -0.506633
2937562153 -0.10322 -0.780525
2939544314 -0.269833 -0.729376
2941526475 -0.541808 -0.366068
2943508636 -0.611922 -0.315544
2945490797 -0.673802 -0.296775
2947472958 -0.647711 -0.398003
2949455119 -0.782165 -0.171572
2951437280 -0.418814 -0.739512
2953419441 -0.820961 -0.39495
2955401602 -1.10007 0.292691
2957383763 -1.164258 0.213785
2959365924 -0.785928 -0.464677
2961348085 -0.424327 -0.682336
2963330246 -0.679541 -0.579473
2965312407 -1.166081 0.005028
2967294568 -1.184926 0.005123
2969276729 -1.265563 0.186797
2971258890 -0.65803 -0.743882
2973241051 -0.696573 -0.707967
2975223212 -1.305186 0.008386
2977205373 -1.337439 -0.010199
2979187534 -1.390211 0.101885
2981169695 -0.720888 -0.793027
2983151856 -0.96879 -0.622672
2985134017 -1.234966 -0.204251
2987116178 -1.22074 -0.25301
2989098339 -1.28696 -0.174609
2991080500 -0.573063 -0.798899
2993062661 -1.102337 -0.554148
2995044822 -0.964269 -0.636283
2997026983 -1.094314 -0.378569
2999009144 -0.96588 -0.460615
3000991305 -0.805421 -0.640607
3002973466 -0.609526 -0.763615
3004955627 -1.011247 -0.30707
3006937788 -0.930287 -0.325836
3008919949 -0.836357 -0.367326
3010902110 -0.733516 -0.24193
3012884271 -0.68986 -0.259991
3014866432 -0.641079 -0.160452
3016848593 -0.584737 -0.084656
3018830754 -0.579306 -0.077672
3020812915 -0.461979 0.096886
3022795076 -0.478432 0.131167
3024777237 -0.34308 0.324156
3026759398 -0.299282 0.479027
3028741559 -0.395013 0.521042
3030723720 -0.243255 0.704561
3032705881 -0.363983 0.731421
3034688042 -0.099579 0.949905
3036670203 -0.111011 0.981962
3038652364 -0.294762 0.988946
3040634525 -0.119959 1.147788
3042616686 -0.29777 1.116844
3044598847 -0.194359 1.267617
3046581008 -0.116061 1.302929
3048563169 -0.171368 1.246937
3050545330 -0.809003 -0.407386
3052527491 -0.783306 -0.422963
3054509652 -0.8259 -0.410458
3056491813 -0.869846 -0.366025
3058473974 -0.817623 -0.377407
3060456135 -0.804889 -0.326308
3062438296 -0.802488 -0.331942
3064420457 -0.806611 -0.313999
3066402618 -0.844744 -0.298197
3068384779 -0.88068 -0.278903
3070366940 -0.896933 -0.271238
3072349101 -0.857516 -0.213275
3074331262 -0.858164 -0.208355
3076313423 -0.896336 -0.216381
3078295584 -0.892116 -0.174593
3080277745 -0.926653 -0.173939
3082259906 -0.895311 -0.206751
3084242067 -0.888912 -0.135195
3086224228 -0.878574 -0.096711
3088206389 -0.881944 -0.067318
3090188550 -0.91656 -0.044168
3092170711 -0.95053 -0.031309
3094152872 -0.950756 -0.039867
3096135033 -0.948516 -0.021033
3098117194 -0.914535 0.029263
3100099355 -0.886114 0.049725
3102081516 -0.929398 0.075065
3104063677 -0.939056 0.134337
3106045838 -0.750013 0.349763
3108027999 -0.960164 0.140675
3110010160 -0.944676 0.12841
3111992321 -0.898322 0.144025
3113974482 -0.891137 0.185011
3115956643 -0.917632 0.233341
3117938804 -0.936321 0.255353
3119920965 -0.925959 0.254215
3121903126 -0.933875 0.260941
3123885287 -0.891132 0.276254
3125867448 -0.851636 0.275306
3127849609 -0.872343 0.330884
3129831770 -0.906289 0.32745
3131813931 -0.809909 0.343127
3133796092 -0.850866 0.350174
3135778253 -0.859491 0.343148
3137760414 -0.798553 0.352515
3139742575 -0.808409 0.376343
3141724736 -0.832334 0.408326
3143706897 -0.826245 0.42136
3145689058 -0.792943 0.437035
3147671219 -0.791018 0.438041
3149653380 -0.773937 0.42178
3151635541 -0.745657 0.474722
3153617702 -0.755952 0.485382
3155599863 -0.784366 0.474064
3157582024 -0.77447 0.502596
3159564185 -0.772402 0.528808
3161546346 -0.736284 0.502997
3163528507 -0.718646 0.515524
3165510668 -0.720224 0.576335
3167492829 -0.748415 0.577774
3169474990 -0.733595 0.61729
3171457151 -0.710102 0.634371
3173439312 -0.688411 0.631429
3175421473 -0.643904 0.626586
3177403634 -0.631332 0.677172
3179385795 -0.646123 0.722373
3181367956 -0.65692 0.732856
3183350117 -0.628401 0.745085
3185332278 -0.600448 0.757089
3187314439 -0.581746 0.75143
3189296600 -0.539441 0.769979
3191278761 -0.527536 0.813878
3193260922 -0.569425 0.845016
3195243083 -0.543821 0.846156
3197225244 -0.506885 0.827563
3199207405 -0.357983 0.819106
3201189566 -0.096086 0.78696
3203171727 -0.357673 0.854905
3205153888 0.04879 0.868684
3207136049 1.041288 -0.2627
3209118210 0.724326 0.61175
3211100371 0.025969 0.901202
3213082532 -0.289939 0.816705
3215064693 1.055861 0.422294
3217046854 1.201616 0.332118
3219029015 1.392753 0.056772
3221011176 0.039198 0.956436
3222993337 0.119712 0.985924
3224975498 1.358975 0.277087
3226957659 1.478722 0.115526
3228939820 1.270236 0.633964
3230921981 -0.051809 0.976626
3232904142 0.675084 0.994963
3234886303 0.964469 0.909282
3236868464 1.413862 0.231098
3238850625 1.021174 0.761735
3240832786 0.021189 1.028022
3242814947 1.397289 0.521198
3244797108 0.752337 1.082631
3246779269 1.227176 0.661937
3248761430 0.151046 1.055257
3250743591 0.309367 1.031599
3252725752 0.696281 0.956449
3254707913 0.842031 0.871729
3256690074 0.696255 0.96826
3258672235 0.058851 1.013878
3260654396 0.334774 0.982012
3262636557 0.3053 0.929107
3264618718 0.563554 0.653021
3266600879 0.523947 0.680464
3268583040 0.14463 0.972484
3270565201 0.490475 0.583659
3272547362 0.352942 0.796782
3274529523 0.25797 0.875041
3276511684 0.283677 0.79027
3278493845 0.455448 0.524069
3280476006 0.535242 0.494788
3282458167 0.569542 0.398332
3284440328 0.599137 0.144274
3286422489 0.657838 0.095301
3288404650 0.600816 0.541679
3290386811 0.724533 0.090871
3292368972 0.688239 -0.492891
3294351133 0.692598 -0.624892
3296333294 0.877319 0.201217
3298315455 0.678978 0.673037
3300297616 0.965847 0.015721
3302279777 0.873364 -0.653111
3304261938 0.26058 -1.299151
3306244099 0.519316 -1.249446
3308226260 0.853251 0.554674
3310208421 1.144141 -0.11778
3312190582 1.043227 -0.84692
3314172743 0.836559 -0.993872
3316154904 0.795358 -1.243224
3318137065 0.965483 0.534788
3320119226 1.271205 -0.098339
3322101387 1.312557 -0.639156
3324083548 0.873019 -1.216082
3326065709 1.055155 -0.956359
3328047870 0.727408 0.696069
3330030031 1.342436 -0.390702
3332012192 1.27403 0.182805
3333994353 1.251977 -0.742378
3335976514 1.28252 -0.498042
3337958675 0.753527 0.647782
3339940836 1.137233 -0.474601
3341922997 1.217337 0.150393
3343905158 1.227671 -0.322257
3345887319 1.231625 0.068334
3347869480 0.788889 0.682413
3349851641 1.053997 -0.086006
3351833802 0.946445 0.28421
3353815963 0.933184 -0.083269
3355798124 0.913198 0.462193
3357780285 0.834615 0.640752
3359762446 0.87926 0.164562
3361744607 0.840095 0.246944
3363726768 0.801698 0.339911
3365708929 0.74016 0.089673
3367691090 0.51128 -0.213748
3369673251 0.847518 0.206383
3371655412 0.817591 0.02372
3373637573 0.865976 0.390934
3375619734 0.223854 -0.581321
3377601895 0.596242 -0.36084
3379584056 -0.185352 -0.774706
3381566217 0.841757 -0.149254
3383548378 0.952365 0.194237
3385530539 0.085178 -0.952213
3387512700 0.543847 -0.761551
3389494861 -0.58677 -1.019587
3391477022 0.907487 -0.16125
3393459183 0.856772 -0.488243
3395441344 -0.08403 -1.209243
3397423505 0.172263 -1.166239
3399405666 -0.29493 -1.217255
3401387827 1.001648 -0.256799
3403369988 0.966369 0.000786
3405352149 -0.215239 -1.307472
3407334310 -0.242766 -1.342034
3409316471 -0.080293 -1.379106
3411298632 -0.190327 -1.351027
3413280793 0.034942 -1.307811
3415262954 -0.144602 -1.27838
3417245115 -0.03878 -1.338989
3419227276 0.198148 -1.364203
3421209437 0.121843 -1.377565
3423191598 0.409807 -1.267438
3425173759 0.326413 -1.241902
3427155920 0.341264 -1.160103
3429138081 0.531552 -1.08548
3431120242 0.498054 -1.146614
3433102403 0.671921 -1.037969
3435084564 0.625604 -0.995445
3437066725 0.623639 -0.915285
3439048886 0.668231 -0.7848
3441031047 0.562564 -0.783136
3443013208 0.678638 -0.736255
3444995369 0.600635 -0.752155
3446977530 0.57688 -0.703852
3448959691 0.630121 -0.62439
3450941852 0.420926 -0.615881
3452924013 0.422913 -0.556607
3454906174 0.268529 -0.59502
3456888335 0.158995 -0.599405
3458870496 0.996247 -0.201477
3460852657 0.978066 -0.236303
3462834818 0.950776 -0.223908
3464816979 0.901387 -0.213803
3466799140 0.821027 -0.299424
3468781301 0.924698 -0.326435
3470763462 0.970843 -0.342774
3472745623 0.927098 -0.412422
3474727784 0.95813 -0.351678
3476709945 0.934649 -0.285317
3478692106 0.853945 -0.379678
3480674267 0.920631 -0.40168
3482656428 0.966946 -0.334214
3484638589 0.95827 -0.354348
3486620750 0.808294 -0.728285
3488602911 0.944708 -0.251503
3490585072 0.883808 -0.187965
3492567233 0.771206 -0.365309
3494549394 0.875558 -0.303761
3496531555 0.848134 -0.335627
3498513716 0.789415 -0.483579
3500495877 0.778873 -0.422518
3502478038 0.622086 -0.674435
3504460199 0.708862 -0.529698
3506442360 0.68417 -0.534102
3508424521 0.72491 -0.550135
3510406682 0.7257 -0.56228
3512388843 0.615356 -0.648343
3514371004 -0.213489 -1.099174
3516353165 0.541669 -0.787667
3518335326 0.617396 -0.673063
3520317487 0.671194 -0.665539
3522299648 0.664646 -0.708062
3524281809 0.598157 -0.737746
3526263970 0.628446 -0.686642
3528246131 0.565908 -0.705844
3530228292 0.548634 -0.777756
3532210453 0.593189 -0.776135
3534192614 0.590586 -0.792414
3536174775 0.558079 -0.825359
3538156936 0.552797 -0.798661
3540139097 0.505747 -0.783446
3542121258 0.48526 -0.821336
3544103419 0.49308 -0.870602
3546085580 0.547319 -0.91147
3548067741 0.562332 -0.926019
3550049902 0.514875 -0.891909
3552032063 0.532376 -0.866905
3554014224 0.476826 -0.833738
3555996385 0.417751 -0.894148
3557978546 0.447511 -0.913091
3559960707 0.278443 -0.953281
3561942868 0.39191 -0.930306
3563925029 0.336981 -0.862512
3565907190 0.341956 -0.845008
3567889351 0.325231 -0.890812
3569871512 0.248095 -0.857993
3571853673 0.286278 -0.86946
3573835834 0.272031 -0.871083
3575817995 0.219763 -0.862466
3577800156 0.211502 -0.809371
3579782317 0.187112 -0.798103
3581764478 0.148757 -0.853802
3583746639 0.134207 -0.84881
3585728800 0.095152 -0.881394
3587710961 0.087549 -0.894136
3589693122 0.021986 -0.836971
3591675283 0.042547 -0.85303
3593657444 0.075661 -0.911287
3595639605 0.004025 -0.915933
3597621766 0.001839 -0.899928
3599603927 0.015941 -0.905705
3601586088 -0.711068 -0.771326
3603568249 -0.496987 -0.86678
3605550410 -0.970012 -0.503917
3607532571 -0.890565 -0.627928
3609514732 -0.21537 -0.959355
3611496893 -0.597998 -0.846374
3613479054 -0.552283 -0.829418
3615461215 -0.737789 -0.628813
3617443376 -0.738466 -0.594593
3619425537 -0.31317 -0.877135
3621407698 -0.683651 -0.68799
3623389859 -0.493238 -0.83553
3625372020 -0.715368 -0.513468
3627354181 -0.613872 -0.595117
3629336342 -0.358374 -0.803803
3631318503 -0.631594 -0.518683
3633300664 -0.572344 -0.675625
3635282825 -0.695042 -0.127588
3637264986 -0.687756 -0.320941
3639247147 -0.276064 -0.83041
3641229308 -0.677508 -0.167909
3643211469 -0.688505 -0.234253
3645193630 -0.71395 0.326834
3647175791 -0.574724 -0.614687
3649157952 -0.615034 -0.5868
3651140113 -0.850328 0.056506
3653122274 -0.756679 -0.380319
3655104435 -0.794136 -0.284454
3657086596 -0.84464 0.456529
3659068757 -0.74297 0.714308
3661050918 -0.933075 -0.09598
3663033079 -0.810526 -0.434901
3665015240 -0.96168 0.034297
3666997401 -0.911621 0.243055
3668979562 -0.800169 0.797617
3670961723 -0.919402 0.604633
3672943884 -0.776865 -0.506105
3674926045 -0.787569 0.881025
3676908206 -1.04039 0.237165
3678890367 -0.882278 0.698144
3680872528 -0.967301 -0.144185
3682854689 -0.942336 -0.257301
3684836850 -1.064805 0.464675
3686819011 -1.021238 0.544679
3688801172 -1.032817 0.372599
3690783333 -0.802275 -0.408899
3692765494 -0.940628 -0.173874
3694747655 -1.042297 0.055813
3696729816 -1.018055 0.423706
3698711977 -1.064601 0.035373
3700694138 -0.839861 -0.429743
3702676299 -0.964122 0.182046
3704658460 -0.912616 -0.080129
3706640621 -0.87817 0.257765
3708622782 -0.883634 -0.276029
3710604943 -0.920758 -0.189442
3712587104 -0.889496 0.072283
3714569265 -0.812743 0.169498
3716551426 -0.774804 0.193955
3718533587 -0.862378 -0.195228
3720515748 -0.805322 0.14624
3722497909 -0.80875 0.191942
3724480070 -0.850437 0.15348
3726462231 -0.859652 0.088612
3728444392 -0.873101 -0.013766
3730426553 -0.640148 0.387396
3732408714 -0.64075 0.446139
3734390875 -0.62978 0.502568
3736373036 -0.590669 0.58501
3738355197 -0.542932 0.641253
3740337358 -0.774645 0.378448
3742319519 -0.025872 0.884196
3744301680 -0.246583 0.849053
3746283841 -0.795798 0.43454
3748266002 -0.849932 0.377634
3750248163 -0.836868 0.404587
3752230324 -0.200133 0.982561
3754212485 0.089913 1.042093
3756194646 0.02597 1.040017
3758176807 -0.855442 0.405584
3760158968 -0.829642 0.493804
3762141129 -0.212854 1.00117
3764123290 -0.062389 1.047055
3766105451 -0.047155 1.030421
3768087612 -0.731759 0.491052
3770069773 -0.798844 0.524915
3772051934 -0.277027 1.040798
3774034095 0.004823 1.106361
3776016256 -0.247333 1.042848
3777998417 -0.850995 0.383825
3779980578 -0.662386 0.645638
3781962739 -0.607311 0.780071
3783944900 -0.03322 1.072818
3785927061 -0.452086 0.942329
3787909222 -0.85252 0.456078
3789891383 -0.109563 1.002624
3791873544 -0.587868 0.730003
3793855705 -0.099767 0.914195
3795837866 -0.509016 0.831479
3797820027 -0.85085 0.467797
3799802188 -0.290825 0.91136
3801784349 0.03198 -0.614023
3803766510 -0.423011 0.79248
3805748671 -0.324835 0.763698
3807730832 -0.306573 0.80954
3809712993 -0.278601 0.846115
3811695154 -0.070903 0.864355
3813677315 -0.441002 0.81578
3815659476 -0.553854 0.745905
3817641637 0.539441 0.486257
3819623798 0.140402 0.780878
3821605959 -0.19327 0.853391
3823588120 -0.458956 0.816678
3825570281 -0.269561 0.857317
3827552442 0.123515 0.848396
3829534603 0.6663 0.516171
3831516764 0.696193 0.473278
3833498925 -0.372274 0.803
3835481086 -0.072442 0.869218
3837463247 0.387955 0.823947
3839445408 0.929064 0.43462
3841427569 0.945716 0.349921
3843409730 -0.189354 0.885086
3845391891 0.500237 0.88933
3847374052 0.542344 0.880825
3849356213 1.01733 0.428938
3851338374 0.678883 0.816021
3853320535 -0.353144 0.871169
3855302696 1.067865 0.145805
3857284857 0.517717 0.904622
3859267018 1.003176 0.554388
3861249179 0.09755 1.002415
3863231340 -0.291775 0.933562
3865213501 0.75347 0.765269
3867195662 0.686506 0.745552
3869177823 0.650266 0.764162
3871159984 0.103753 0.983974
3873142145 -0.03299 0.982904
3875124306 0.63495 0.865336
3877106467 0.608227 0.845891
3879088628 0.575123 0.795525
3881070789 -0.159122 0.858825
3883052950 0.243952 0.905361
3885035111 0.453146 0.86215
3887017272 -0.026887 0.952931
3888999433 0.001919 0.933623
3890981594 0.521602 0.731386
3892963755 0.58041 0.599955
3894945916 0.164603 0.835175
3896928077 0.41366 0.762474
3898910238 0.14379 0.92115
3900892399 0.679302 0.517988
3902874560 0.614125 0.578613
3904856721 0.765504 0.090331
3906838882 0.354677 0.811547
3908821043 0.303099 0.869045
3910803204 0.804302 0.195778
3912785365 0.821645 0.093917
3914767526 0.813497 -0.126509
3916749687 0.382681 0.831339
3918731848 0.445513 0.734261
3920714009 0.831892 -0.12835
3922696170 0.904247 0.073332
3924678331 0.844718 -0.411275
3926660492 0.557774 0.791392
3928642653 0.545016 0.798446
3930624814 0.900091 -0.300584
3932606975 0.904483 -0.071239
3934589136 0.956297 -0.249559
3936571297 0.794563 0.570076
3938553458 0.835872 0.539396
3940535619 0.99453 -0.248708
3942517780 0.994245 -0.265964
3944499941 0.934929 -0.248688
3946482102 0.433707 0.844442
3948464263 1.052882 -0.050669
3950446424 1.02044 0.182239
3952428585 1.031504 -0.305079
3954410746 1.02203 -0.111923
3956392907 0.515993 0.771834
3958375068 1.024609 -0.215791
3960357229 1.092867 0.06736
3962339390 0.573533 0.838521
3964321551 1.040837 0.34333
3966303712 1.058146 -0.252866
3968285873 0.986173 0.208845
3970268034 0.764109 0.602062
3972250195 0.741676 0.698056
3974232356 1.052884 0.20832
3976214517 1.002349 0.362039
3978196678 1.030311 0.198697
3980178839 0.976859 0.064774
3982161000 0.938147 0.052744
3984143161 0.892722 0.397938
3986125322 0.691645 0.711966
3988107483 0.924556 -0.313053
3990089644 0.959361 0.19123
3992071805 0.925791 0.037226
3994053966 0.869769 -0.121432
3996036127 0.847726 -0.212781
3998018288 0.881067 -0.078322
4000000449 0.755974 -0.430403
