# HZ S RI R 50
2500000000 -1.435562 0.397903
2500495540 0.55602 0.374134
2500991080 0.572732 0.360871
2501486620 0.58724 0.359286
2501982160 0.605649 0.360819
2502477700 0.617465 0.356611
2502973240 0.701874 0.171779
2503468780 0.471472 0.614807
2503964320 0.748194 0.00322
2504459860 0.664903 0.336133
2504955400 0.466007 0.647932
2505450940 0.373051 0.72843
2505946480 0.375532 0.730766
2506442020 0.765979 0.148795
2506937560 0.76544 0.151916
2507433100 0.809869 -0.043167
2507928640 0.377546 0.731894
2508424180 0.530822 0.604178
2508919720 0.865436 -0.074842
2509415260 0.846105 0.132903
2509910800 0.912932 -0.067088
2510406340 0.302245 0.85342
2510901880 0.612765 0.605309
2511397420 0.849057 0.309163
2511892960 0.996574 -0.313263
2512388500 0.999665 -0.084212
2512884040 0.352447 0.871668
2513379580 1.040806 -0.53532
2513875120 0.9226 0.317838
2514370660 1.098283 -0.332169
2514866200 0.705738 0.640541
2515361740 0.377574 0.894518
2515857280 1.085883 -0.111419
2516352820 1.102518 -0.109401
2516848360 1.076907 0.111111
2517343900 0.556192 0.792355
2517839440 0.738126 0.664986
2518334980 1.154281 -0.085483
2518830520 1.162868 -0.278958
2519326060 1.151999 -0.072616
2519821600 0.353551 0.882671
2520317140 1.083996 0.103326
2520812680 1.002903 0.327158
2521308220 0.564793 0.787449
2521803760 0.591529 0.769518
2522299300 1.208887 -0.056345
2522794840 1.087359 0.363894
2523290380 0.77665 0.702656
2523785920 0.586685 0.822582
2524281460 0.600893 0.822539
2524777000 1.31091 0.007263
2525272540 1.235995 0.219937
2525768080 1.326203 0.063464
2526263620 0.550694 0.862246
2526759160 0.588846 0.818156
2527254700 1.249424 0.328667
2527750240 1.243917 0.32695
2528245780 1.245401 0.31667
2528741320 0.382238 0.855266
2529236860 0.770003 0.720927
2529732400 1.095312 0.511535
2530227940 1.203115 0.355866
2530723480 1.213527 0.360103
2531219020 0.566001 0.769026
2531714560 0.727546 0.717721
2532210100 1.159227 0.384864
2532705640 1.136144 0.395454
2533201180 1.198054 0.261996
2533696720 0.393618 0.776054
2534192260 0.997062 0.531562
2534687800 0.986112 0.531357
2535183340 1.330809 0.160541
2535678880 1.327205 0.189586
2536174420 0.283846 0.762743
2536669960 1.104676 0.466592
2537165500 1.206222 0.383324
2537661040 1.191754 0.375621
2538156580 0.58458 0.735252
2538652120 0.710615 0.703221
2539147660 0.952052 0.574121
2539643200 0.715941 0.681636
2540138740 0.596558 0.708586
2540634280 1.119225 0.413461
2541129820 1.198361 0.320847
2541625360 0.682659 0.67169
2542120900 0.696652 0.666069
2542616440 0.635774 0.696137
2543111980 1.084052 0.393029
2543607520 1.064478 0.394516
2544103060 0.99189 0.473756
2544598600 1.08641 0.308216
2545094140 0.951033 0.451752
2545589680 0.632826 0.646744
2546085220 0.805423 0.556992
2546580760 0.812115 0.559723
2547076300 1.000095 0.377068
2547571840 0.945796 0.455984
2548067380 0.997278 0.387161
2548562920 0.999654 0.39499
2549058460 0.987587 0.39875
2549554000 0.934423 0.470372
2550049540 0.580104 0.676813
2550545080 0.524975 0.686367
2551040620 0.521168 0.686845
2551536160 0.521564 0.677047
2552031700 0.533287 0.676218
2552527240 0.524842 0.682942
2553022780 0.539924 0.666121
2553518320 0.530387 0.663648
2554013860 0.589414 0.640638
2554509400 0.052512 -0.117045
2555004940 0.862284 0.3248
2555500480 0.850909 0.335958
2555996020 0.841676 0.262142
2556491560 0.820469 0.254338
2556987100 0.795141 0.30442
2557482640 0.77196 0.250805
2557978180 0.756525 0.288836
2558473720 0.730727 0.226798
2558969260 0.729354 0.215625
2559464800 0.727088 0.262731
2559960340 0.704905 0.207158
2560455880 0.70748 0.250017
2560951420 0.677393 0.19403
2561446960 0.666314 0.187267
2561942500 0.676121 0.233522
2562438040 0.642558 0.175674
2562933580 0.652637 0.199368
2563429120 0.606443 0.145439
2563924660 0.580811 0.140347
2564420200 0.614427 0.171144
2564915740 0.547209 0.113893
2565411280 0.571584 0.147057
2565906820 0.508407 0.090886
2566402360 0.49792 0.084632
2566897900 0.533656 0.12533
2567393440 0.654842 0.577038
2567888980 0.655029 0.564872
2568384520 0.655512 0.564229
2568880060 0.651823 0.556183
2569375600 0.645568 0.545454
2569871140 0.65227 0.528028
2570366680 0.647327 0.531592
2570862220 0.647719 0.523761
2571357760 0.640062 0.51599
2571853300 0.654282 0.519811
2572348840 0.679094 0.509546
2572844380 0.678502 0.511669
2573339920 0.68734 0.419354
2573835460 0.696367 0.502332
2574331000 0.693688 0.469832
2574826540 0.726314 0.485791
2575322080 0.729103 0.493216
2575817620 0.734633 0.492178
2576313160 0.733885 0.490238
2576808700 0.756835 0.494483
2577304240 0.756485 0.489618
2577799780 0.762588 0.477809
2578295320 0.758536 0.442272
2578790860 0.781393 0.453287
2579286400 0.767241 0.455857
2579781940 0.779497 0.42935
2580277480 0.77171 0.441574
2580773020 0.769669 0.437265
2581268560 0.762778 0.405395
2581764100 0.770589 0.432278
2582259640 0.780048 0.419771
2582755180 0.72315 0.166887
2583250720 0.756623 0.284744
2583746260 0.759685 0.404578
2584241800 0.761487 0.368886
2584737340 0.770147 0.377484
2585232880 0.781137 0.367872
2585728420 0.781861 0.372327
2586223960 0.785746 0.369149
2586719500 0.80935 0.381324
2587215040 0.792204 0.359118
2587710580 0.806042 0.361829
2588206120 0.81452 0.385307
2588701660 0.799968 0.362022
2589197200 0.806776 0.356018
2589692740 0.790307 0.190684
2590188280 0.803451 0.340898
2590683820 0.797199 0.341875
2591179360 0.794379 0.307983
2591674900 0.794108 0.334464
2592170440 0.781974 0.320879
2592665980 0.792486 0.29224
2593161520 0.780044 0.327364
2593657060 0.768023 0.304274
2594152600 0.758859 0.2962
2594648140 0.753319 0.306063
2595143680 0.74351 0.274899
2595639220 0.740522 0.27038
2596134760 0.72786 0.247714
2596630300 0.738544 0.239006
2597125840 0.741675 0.229851
2597621380 0.742092 0.217564
2598116920 0.753855 0.240683
2598612460 0.758839 0.218804
2599108000 0.761516 0.207654
2599603540 0.763303 0.239573
2600099080 0.789687 -0.091198
2600594620 0.788514 -0.176086
2601090160 0.764865 -0.407595
2601585700 0.198844 -1.161594
2602081240 0.216865 -1.175433
2602576780 0.432351 -0.969026
2603072320 0.798256 -0.196561
2603567860 0.685623 -0.62951
2604063400 0.220028 -1.183541
2604558940 0.421069 -1.032619
2605054480 0.249315 -1.170976
2605550020 0.761442 -0.034113
2606045560 0.438131 -0.988022
2606541100 0.673593 -0.626229
2607036640 0.280588 -1.140859
2607532180 0.448766 -0.978119
2608027720 0.698992 0.090128
2608523260 0.297348 -1.104042
2609018800 0.300043 -1.066012
2609514340 0.119228 -1.219047
2610009880 0.745658 -0.264135
2610505420 0.734599 -0.289533
2611000960 0.329977 -1.11426
2611496500 0.369758 -1.098423
2611992040 0.394636 -1.092027
2612487580 0.725843 -0.114924
2612983120 0.648356 -0.813888
2613478660 0.652899 -0.806067
2613974200 0.735069 -0.278849
2614469740 0.74424 -0.463971
2614965280 0.480477 -1.057093
2615460820 0.649592 -0.737316
2615956360 0.695476 -0.572738
2616451900 0.68467 -0.159221
2616947440 0.352218 -1.101126
2617442980 0.641609 -0.706619
2617938520 0.396174 -1.040439
2618434060 0.681621 -0.424346
2618929600 0.649331 -0.42902
2619425140 0.540742 -0.782926
2619920680 0.456707 -0.84603
2620416220 0.465616 -0.82453
2620911760 0.600501 -0.273911
2621407300 0.575747 -0.477704
2621902840 0.555059 -0.577475
2622398380 0.399516 -0.825739
2622893920 0.524315 -0.653775
2623389460 0.542209 -0.196076
2623885000 0.36317 -0.855217
2624380540 0.567026 -0.45169
2624876080 0.437954 -0.754351
2625371620 0.54636 -0.291005
2625867160 0.557328 -0.357965
2626362700 0.495606 -0.627566
2626858240 0.498183 -0.610299
2627353780 0.493649 -0.585093
2627849320 0.472244 -0.210162
2628344860 0.520009 -0.361733
2628840400 0.502906 -0.402723
2629335940 0.479623 -0.472369
2629831480 0.487468 -0.398981
2630327020 0.414781 -0.193578
2630822560 0.443692 -0.458469
2631318100 0.449401 -0.290757
2631813640 0.392505 -0.196534
2632309180 0.376511 -0.18354
2632804720 0.4056 -0.224637
2633300260 0.392748 -0.205892
2633795800 0.376711 -0.186121
2634291340 0.367897 -0.169253
2634786880 0.382149 -0.161828
2635282420 0.308822 -0.13593
2635777960 0.30423 -0.125722
2636273500 0.441229 -0.129148
2636769040 0.334529 -0.083963
2637264580 0.295812 -0.080975
2637760120 0.202455 -0.158627
2638255660 0.380273 -0.003909
2638751200 0.371173 0.016313
2639246740 0.407096 0.049687
2639742280 0.211483 -0.033778
2640237820 0.161288 -0.099951
2640733360 0.347417 0.122359
2641228900 0.338953 0.145098
2641724440 0.380091 0.182007
2642219980 0.13304 -0.014733
2642715520 0.109348 -0.057103
2643211060 0.250469 0.20449
2643706600 0.351809 0.276635
2644202140 0.225641 0.231267
2644697680 0.083128 0.036118
2645193220 0.094762 0.116295
2645688760 0.266319 0.322546
2646184300 0.313964 0.365039
2646679840 0.248935 0.344193
2647175380 0.044061 0.021533
2647670920 0.151158 0.305224
2648166460 0.139754 0.31845
2648662000 0.381681 0.483829
2649157540 0.252804 0.447257
2649653080 0.027643 0.089639
2650148620 0.018376 0.098177
2650644160 0.026054 0.040868
2651139700 0.023569 0.055586
2651635240 0.018881 0.074314
2652130780 0.033524 0.155306
2652626320 0.684839 -0.254146
2653121860 0.321627 0.614791
2653617400 0.36591 0.637945
2654112940 0.347493 0.642755
2654608480 0.286133 0.632414
2655104020 0.348338 0.668002
2655599560 0.285735 0.642891
2656095100 0.352791 0.665065
2656590640 0.331084 0.672324
2657086180 0.266847 0.65161
2657581720 0.253502 0.64339
2658077260 0.267719 0.643541
2658572800 0.310082 0.663085
2659068340 0.300987 0.657388
2659563880 0.250671 0.639841
2660059420 0.293131 0.669538
2660554960 0.245657 0.655617
2661050500 0.285044 0.684582
2661546040 0.275338 0.68249
2662041580 0.231876 0.668864
2662537120 0.255594 0.687296
2663032660 0.215815 0.676183
2663528200 0.231131 0.689834
2664023740 0.223063 0.686139
2664519280 0.185838 0.665112
2665014820 0.190935 0.674045
2665510360 0.160942 0.647903
2666005900 0.188016 0.668628
2666501440 0.131133 0.467382
2666996980 0.135281 0.474573
2667492520 0.130582 0.48842
2667988060 0.147156 0.483885
2668483600 0.148343 0.487885
2668979140 0.15318 0.491423
2669474680 0.158203 0.493597
2669970220 0.159836 0.493823
2670465760 0.166078 0.493663
2670961300 0.172913 0.494494
2671456840 0.176772 0.489118
2671952380 0.183802 0.490299
2672447920 0.188314 0.480688
2672943460 0.209524 0.507241
2673439000 0.219459 0.509208
2673934540 0.230624 0.515783
2674430080 0.245542 0.52632
2674925620 0.260142 0.523364
2675421160 0.272808 0.528476
2675916700 0.281676 0.540365
2676412240 0.290449 0.540226
2676907780 0.302271 0.544825
2677403320 0.314666 0.496443
2677898860 0.331684 0.54934
2678394400 0.336278 0.553179
2678889940 0.34717 0.536705
2679385480 0.377981 0.524979
2679881020 0.207347 0.114102
2680376560 0.373107 0.543245
2680872100 0.38603 0.531303
2681367640 0.407907 0.464707
2681863180 0.409893 0.54487
2682358720 0.408995 0.538324
2682854260 0.417357 0.529405
2683349800 0.433516 0.530339
2683845340 0.439335 0.514696
2684340880 0.438612 0.504344
2684836420 0.453658 0.522815
2685331960 0.46842 0.508251
2685827500 0.486627 0.501403
2686323040 0.502508 0.403039
2686818580 0.513756 0.529728
2687314120 0.513038 0.510715
2687809660 0.537578 0.508986
2688305200 0.546063 0.515005
2688800740 0.550909 0.493082
2689296280 0.556476 0.485043
2689791820 0.571856 0.513746
2690287360 0.584626 0.501733
2690782900 0.596919 0.489649
2691278440 0.583996 0.505874
2691773980 0.598423 0.502435
2692269520 0.596902 0.488526
2692765060 0.615167 0.468972
2693260600 0.616071 0.484052
2693756140 0.618084 0.455209
2694251680 0.619982 0.44881
2694747220 0.636062 0.464276
2695242760 0.637228 0.443593
2695738300 0.639167 0.438972
2696233840 0.630445 0.470755
2696729380 0.647703 0.404992
2697224920 0.644629 0.39738
2697720460 0.693938 0.264372
2698216000 0.658426 0.429383
2698711540 0.663325 0.417196
2699207080 0.67779 0.405016
2699702620 0.697491 0.40715
2700198160 -0.820212 -1.141602
2700693700 0.798014 0.031964
2701189240 0.50531 -0.86128
2701684780 0.815112 -0.134955
2702180320 0.794792 0.209318
2702675860 -0.195204 -1.357656
2703171400 0.699919 -0.721816
2703666940 -0.146621 -1.396557
2704162480 0.851869 -0.006463
2704658020 0.855263 -0.000662
2705153560 0.593162 -0.977673
2705649100 0.620592 -1.001778
2706144640 0.423744 -1.186561
2706640180 0.874679 -0.267376
2707135720 0.884932 -0.298001
2707631260 0.621405 -0.980504
2708126800 0.462468 -1.161699
2708622340 0.265086 -1.335979
2709117880 0.812011 0.151526
2709613420 0.284817 -1.287351
2710108960 0.787546 -0.778587
2710604500 0.512941 -1.192553
2711100040 0.915032 -0.287066
2711595580 0.900315 -0.102427
2712091120 0.733831 -1.022039
2712586660 0.632363 -1.22959
2713082200 0.633675 -1.193602
2713577740 0.982075 -0.295265
2714073280 0.965432 -0.558757
2714568820 0.853739 -0.988797
2715064360 0.538049 -1.401946
2715559900 0.749525 -1.208323
2716055440 0.888633 0.096502
2716550980 0.736224 -1.194866
2717046520 0.99476 -0.551317
2717542060 0.972483 -0.088686
2718037600 0.888752 0.099598
2718533140 0.971291 -0.741769
2719028680 0.97026 -0.72358
2719524220 0.953942 -0.69098
2720019760 0.974611 -0.690563
2720515300 0.900832 -0.868032
2721010840 1.00374 -0.353067
2721506380 0.930459 -0.697806
2722001920 0.762685 -1.013495
2722497460 0.872839 -0.824501
2722993000 0.983257 -0.45715
2723488540 1.017287 -0.287402
2723984080 1.01949 -0.303688
2724479620 0.968253 -0.82003
2724975160 0.792641 -1.158274
2725470700 0.939157 -0.964551
2725966240 1.010076 -0.087487
2726461780 1.031215 -0.106914
2726957320 1.060668 -0.760479
2727452860 1.02367 -0.908403
2727948400 1.085675 -0.695591
2728443940 1.024999 -0.047797
2728939480 1.080088 -0.19275
2729435020 1.079666 -0.631402
2729930560 1.043945 -0.75743
2730426100 1.035363 -0.737078
2730921640 0.916424 0.067578
2731417180 1.058039 -0.41956
2731912720 1.04503 -0.289042
2732408260 0.862196 -0.865451
2732903800 0.998204 -0.490976
2733399340 0.869087 0.048484
2733894880 0.819128 -0.762018
2734390420 0.948222 -0.245689
2734885960 0.781486 -0.7204
2735381500 0.921559 -0.151039
2735877040 0.89593 -0.069643
2736372580 0.892399 -0.538498
2736868120 0.928113 -0.449331
2737363660 0.837204 -0.618719
2737859200 0.925808 -0.100853
2738354740 0.928615 -0.093023
2738850280 0.906054 -0.437002
2739345820 0.933609 -0.112609
2739841360 0.934777 -0.116429
2740336900 0.88377 -0.431916
2740832440 0.721075 -0.597081
2741327980 0.924989 -0.201692
2741823520 0.906943 -0.264098
2742319060 0.914538 -0.138334
2742814600 0.815434 -0.405579
2743310140 0.746722 -0.44788
2743805680 0.604402 -0.505413
2744301220 0.864495 -0.224918
2744796760 0.874187 -0.178517
2745292300 0.714726 -0.383674
2745787840 0.640857 -0.407761
2746283380 0.546509 -0.416216
2746778920 0.820544 -0.193705
2747274460 0.772687 -0.254172
2747770000 0.596869 -0.371341
2748265540 0.586459 -0.37941
2748761080 0.438241 -0.388244
2749256620 0.82157 -0.243358
2749752160 0.817417 -0.263314
2750247700 0.859086 -0.209548
2750743240 0.907896 -0.17302
2751238780 0.929471 -0.169337
2751734320 1.155071 -0.273675
2752229860 0.37115 -0.389452
2752725400 0.159042 -0.296123
2753220940 0.213053 -0.340157
2753716480 0.09272 -0.284801
2754212020 0.085639 -0.278759
2754707560 0.121312 -0.332885
2755203100 -0.001242 -0.244455
2755698640 0.064566 -0.313243
2756194180 -0.046656 -0.242728
2756689720 -0.071658 -0.231059
2757185260 0.002397 -0.311547
2757680800 -0.148107 -0.178502
2758176340 -0.093142 -0.26942
2758671880 -0.223082 -0.147995
2759167420 -0.246909 -0.147315
2759662960 -0.18161 -0.23836
2760158500 -0.309792 -0.12518
2760654040 -0.254312 -0.226376
2761149580 -0.378811 -0.103293
2761645120 -0.41005 -0.095121
2762140660 -0.347037 -0.224271
2762636200 -0.481811 -0.08659
2763131740 -0.403876 -0.239641
2763627280 -0.550649 -0.046394
2764122820 0.877825 -0.353494
2764618360 0.854451 -0.375309
2765113900 0.883112 -0.371091
2765609440 0.917948 -0.345968
2766104980 0.884224 -0.361908
2766600520 0.872076 -0.374527
2767096060 0.918433 -0.376045
2767591600 0.865335 -0.387483
2768087140 0.870881 -0.393733
2768582680 0.887969 -0.367415
2769078220 0.873988 -0.372312
2769573760 0.829548 -0.402358
2770069300 0.86559 -0.373641
2770564840 0.842542 -0.385712
2771060380 0.806699 -0.394081
2771555920 0.839642 -0.372002
2772051460 0.660554 -0.610121
2772547000 0.754157 -0.425262
2773042540 0.788953 -0.393963
2773538080 0.66094 -0.544554
2774033620 0.803377 -0.403393
2774529160 0.753461 -0.431861
2775024700 0.830803 -0.422288
2775520240 0.82603 -0.441104
2776015780 0.804926 -0.468475
2776511320 0.840892 -0.449468
2777006860 0.870597 -0.442077
2777502400 0.798008 -0.506516
2777997940 0.831425 -0.477467
2778493480 0.866846 -0.462871
2778989020 1.006076 0.729511
2779484560 0.847089 -0.463873
2779980100 0.792764 -0.507434
2780475640 0.855422 -0.471257
2780971180 0.850005 -0.468275
2781466720 0.800361 -0.484749
2781962260 0.808966 -0.500732
2782457800 0.821935 -0.476084
2782953340 0.782229 -0.518126
2783448880 0.793192 -0.483796
2783944420 0.797049 -0.443121
2784439960 0.777433 -0.495625
2784935500 0.746914 -0.480881
2785431040 0.758186 -0.486286
2785926580 0.779075 -0.463566
2786422120 0.756392 -0.504026
2786917660 0.766848 -0.496449
2787413200 0.798469 -0.493993
2787908740 0.75697 -0.543773
2788404280 0.757975 -0.512968
2788899820 0.794646 -0.505873
2789395360 0.763962 -0.566317
2789890900 0.768581 -0.540148
2790386440 0.596999 -0.774711
2790881980 0.797938 -0.522266
2791377520 0.681383 -0.577543
2791873060 0.748035 -0.576059
2792368600 0.78602 -0.557752
2792864140 0.736564 -0.58122
2793359680 0.733808 -0.593859
2793855220 0.772239 -0.539145
2794350760 0.735625 -0.588593
2794846300 0.702925 -0.594078
2795341840 0.540241 -0.809259
2795837380 0.734028 -0.559853
2796332920 0.613541 -0.613558
2796828460 0.704896 -0.565486
2797324000 0.701292 -0.541408
2797819540 0.664258 -0.608576
2798315080 0.670769 -0.572793
2798810620 0.703894 -0.561749
2799306160 0.693045 -0.636479
2799801700 0.678183 -0.599568
2800297240 0.70233 0.495398
2800792780 0.343837 -1.069234
2801288320 -1.273869 -0.999985
2801783860 -1.04219 -1.188777
2802279400 0.593705 -0.850599
2802774940 -0.166733 -1.344838
2803270480 -0.186311 -1.371937
2803766020 -1.364399 -0.955821
2804261560 -0.684593 -1.36033
2804757100 0.598241 -0.847604
2805252640 -0.643727 -1.376749
2805748180 -0.088896 -1.35938
2806243720 -1.069959 -1.175882
2806739260 -0.585286 -1.348582
2807234800 0.569248 -0.879031
2807730340 -0.766724 -1.290948
2808225880 -0.302788 -1.321745
2808721420 0.539429 -0.828226
2809216960 -0.294064 -1.295159
2809712500 -0.879774 -1.149347
2810208040 -0.195615 -1.292164
2810703580 0.380701 -1.016552
2811199120 0.361475 -1.033023
2811694660 -0.638446 -1.293124
2812190200 -0.423804 -1.334149
2812685740 -0.571073 -1.341566
2813181280 0.404177 -1.036223
2813676820 0.047875 -1.326232
2814172360 -0.538125 -1.358335
2814667900 -0.508391 -1.375648
2815163440 -0.470465 -1.388583
2815658980 0.545887 -0.89924
2816154520 -0.27173 -1.39026
2816650060 0.139138 -1.291867
2817145600 -0.542664 -1.328237
2817641140 0.014989 -1.310019
2818136680 0.437438 -1.024366
2818632220 -0.280947 -1.321176
2819127760 -0.26698 -1.30039
2819623300 -0.250164 -1.28246
2820118840 0.322404 -1.084504
2820614380 0.412563 -0.977103
2821109920 -0.208721 -1.194512
2821605460 -0.315436 -1.156002
2822101000 -0.189639 -1.143565
2822596540 0.449039 -0.8245
2823092080 -0.059113 -1.092621
2823587620 0.04545 -1.082897
2824083160 -0.263631 -1.082734
2824578700 0.090977 -1.090437
2825074240 0.361842 -0.961618
2825569780 -0.034437 -1.110259
2826065320 -0.009971 -1.104249
2826560860 0.366907 -0.965063
2827056400 0.460364 -0.895292
2827551940 0.104503 -1.07877
2828047480 0.11059 -1.071205
2828543020 0.017606 -1.055974
2829038560 0.113193 -1.045555
2829534100 0.122908 -1.026567
2830029640 0.319698 -0.967385
2830525180 0.276886 -0.968961
2831020720 -0.115023 -0.901324
2831516260 0.269288 -0.94049
2832011800 0.272583 -0.923789
2832507340 0.394183 -0.866997
2833002880 -0.045805 -0.831355
2833498420 0.009717 -0.833048
2833993960 -0.162191 -0.66781
2834489500 0.21635 -0.839998
2834985040 0.327219 -0.818165
2835480580 -0.01598 -0.723567
2835976120 -0.031275 -0.712163
2836471660 -0.174441 -0.524594
2836967200 0.14694 -0.829601
2837462740 0.200703 -0.842708
2837958280 -0.087485 -0.682511
2838453820 -0.133222 -0.594121
2838949360 -0.212923 -0.403838
2839444900 0.172012 -0.867036
2839940440 0.08515 -0.834185
2840435980 -0.15072 -0.606486
2840931520 -0.203093 -0.49174
2841427060 -0.209426 -0.492739
2841922600 0.254045 -0.92925
2842418140 0.032024 -0.812129
2842913680 -0.094044 -0.724177
2843409220 -0.277783 -0.123846
2843904760 -0.286758 -0.362685
2844400300 0.22879 -0.907387
2844895840 -0.209893 -0.562095
2845391380 -0.15808 -0.647667
2845886920 -0.339616 0.024617
2846382460 -0.364577 -0.095426
2846878000 0.16524 -0.854667
2847373540 -0.384205 -0.026188
2847869080 -0.305778 -0.446046
2848364620 -0.010269 -0.773241
2848860160 -0.346478 -0.415691
2849355700 -0.456834 -0.075903
2849851240 -0.447564 -0.232321
2850346780 -0.493258 0.053151
2850842320 -0.448521 -0.37202
2851337860 -0.466299 0.361341
2851833400 -0.519718 0.269298
2852328940 -0.528199 0.291789
2852824480 -0.504221 0.480462
2853320020 -0.578242 0.309367
2853815560 -0.498352 0.555356
2854311100 -0.545747 0.54292
2854806640 -0.633923 0.389334
2855302180 -0.569859 0.590988
2855797720 -0.627911 0.47134
2856293260 -0.617011 0.612349
2856788800 -0.58761 0.661896
2857284340 -0.682264 0.483368
2857779880 -0.629291 0.673024
2858275420 -0.708889 0.537422
2858770960 -0.638536 0.723019
2859266500 -0.732316 0.517411
2859762040 -0.718916 0.584754
2860257580 -0.661579 0.742251
2860753120 -0.753423 0.560667
2861248660 -0.646232 0.809051
2861744200 -0.678089 0.860623
2862239740 -0.788289 0.678383
2862735280 -0.72308 0.858525
2863230820 -0.832873 0.651833
2863726360 -0.848078 0.708152
2864221900 -0.779879 0.885832
2864717440 0.056818 -0.947453
2865212980 0.074299 -0.923695
2865708520 0.059802 -0.947846
2866204060 0.075508 -0.979807
2866699600 -0.038777 -0.872053
2867195140 0.063052 -0.972013
2867690680 0.101032 -0.970612
2868186220 0.030558 -0.965227
2868681760 0.053332 -0.955632
2869177300 0.085345 -0.978408
2869672840 0.082625 -0.954764
2870168380 0.034402 -0.918779
2870663920 0.06286 -0.94872
2871159460 -0.35272 -0.957249
2871655000 -0.058218 -0.85664
2872150540 0.01719 -0.928126
2872646080 0.07488 -0.918817
2873141620 -0.016215 -0.888573
2873637160 0.010923 -0.893374
2874132700 -0.277019 -0.869389
2874628240 -0.003555 -0.923545
2875123780 -0.056808 -0.835749
2875619320 0.00141 -0.928424
2876114860 0.048051 -0.952205
2876610400 -0.134932 -0.865692
2877105940 -0.04701 -0.950084
2877601480 0.004157 -0.934758
2878097020 1.130303 0.672984
2878592560 -1.249417 0.686916
2879088100 -0.084968 -0.935099
2879583640 -0.052589 -0.937532
2880079180 -0.050752 -0.965933
2880574720 -0.057614 -0.954509
2881070260 -0.120045 -0.885237
2881565800 -0.084977 -0.955073
2882061340 -0.028243 -0.954413
2882556880 -0.186875 -0.8761
2883052420 -0.081032 -0.939681
2883547960 -0.009179 -0.913818
2884043500 -0.157066 -0.929492
2884539040 -0.109648 -0.883736
2885034580 -0.391946 -0.868436
2885530120 -0.100716 -0.878395
2886025660 -0.213748 -0.823214
2886521200 -0.119253 -0.913563
2887016740 -0.097573 -0.930095
2887512280 -0.211797 -0.835441
2888007820 -0.123161 -0.899223
2888503360 -0.068204 -0.930166
2888998900 -0.184874 -0.906497
2889494440 -0.144129 -0.912975
2889989980 -0.462453 -0.906437
2890485520 -0.186124 -0.946343
2890981060 -0.2268 -0.891904
2891476600 -0.166916 -0.926842
2891972140 -0.152808 -0.947021
2892467680 -0.280449 -0.869087
2892963220 -0.217353 -0.934749
2893458760 -0.124919 -0.927707
2893954300 -0.205329 -0.956855
2894449840 -0.213669 -0.934588
2894945380 -0.167277 -0.900627
2895440920 -0.18289 -0.917087
2895936460 -0.255328 -0.885172
2896432000 -0.240795 -0.880496
2896927540 -0.204123 -0.901213
2897423080 -0.305273 -0.810964
2897918620 -0.244078 -0.875372
2898414160 -0.20514 -0.877367
2898909700 -0.293681 -0.847005
2899405240 -0.261823 -0.888406
2899900780 -0.240226 -0.892569
2900396320 -0.623715 -0.88892
2900891860 -0.923319 -0.786963
2901387400 -1.400564 -0.056577
2901882940 -1.319745 -0.379206
2902378480 -0.49883 -0.942421
2902874020 -1.432177 0.034107
2903369560 -1.067542 -0.741779
2903865100 -1.418126 -0.040162
2904360640 -1.351319 -0.361034
2904856180 -0.475326 -0.938284
2905351720 -1.315231 -0.401675
2905847260 -1.206521 -0.551517
2906342800 -1.31493 -0.296233
2906838340 -0.804708 -0.85935
2907333880 -0.48001 -0.89123
2907829420 -1.180996 -0.465729
2908324960 -1.083556 -0.571104
2908820500 -1.182794 -0.344866
2909316040 -0.600176 -0.83579
2909811580 -0.578202 -0.804019
2910307120 -0.986351 -0.536337
2910802660 -0.970244 -0.535933
2911298200 -1.012719 -0.443527
2911793740 -0.678154 -0.738161
2912289280 -0.590089 -0.76888
2912784820 -0.954058 -0.5517
2913280360 -1.003813 -0.471986
2913775900 -0.997205 -0.477372
2914271440 -0.485694 -0.8156
2914766980 -0.933982 -0.574102
2915262520 -0.865629 -0.646259
2915758060 -0.605382 -0.794088
2916253600 -0.776829 -0.706346
2916749140 -0.92328 -0.503369
2917244680 -0.871253 -0.57196
2917740220 -0.670142 -0.746099
2918235760 -0.514532 -0.80584
2918731300 -0.879331 -0.34122
2919226840 -0.766028 -0.601485
2919722380 -0.817865 -0.398373
2920217920 -0.586256 -0.73888
2920713460 -0.585582 -0.71685
2921209000 -0.737387 -0.415914
2921704540 -0.720073 -0.390428
2922200080 -0.694373 -0.440019
2922695620 -0.609535 -0.601153
2923191160 -0.606982 -0.578793
2923686700 -0.642301 -0.434469
2924182240 -0.605997 -0.189288
2924677780 -0.643227 -0.359662
2925173320 -0.560469 -0.670616
2925668860 -0.605749 -0.213556
2926164400 -0.659588 -0.395426
2926659940 -0.54301 -0.098719
2927155480 -0.643589 -0.615561
2927651020 -0.656052 -0.524785
2928146560 -0.632011 -0.266213
2928642100 -0.59015 -0.168593
2929137640 -0.584683 -0.152229
2929633180 -0.665849 -0.58218
2930128720 -0.66805 -0.397486
2930624260 -0.676287 -0.357476
2931119800 -0.399732 0.107566
2931615340 -0.59517 -0.126659
2932110880 -0.654645 -0.664964
2932606420 -0.350959 0.183205
2933101960 -0.613112 -0.176835
2933597500 -0.656121 -0.506271
2934093040 -0.65468 -0.502514
2934588580 -0.616969 -0.119913
2935084120 -0.603021 -0.09212
2935579660 -0.581239 -0.059593
2936075200 -0.576395 -0.037909
2936570740 -0.527149 0.108332
2937066280 -0.658125 -0.334158
2937561820 -0.679192 -0.246267
2938057360 -0.312306 0.421265
2938552900 -0.616883 0.064384
2939048440 -0.706599 -0.255902
2939543980 -0.704785 -0.535098
2940039520 -0.6292 0.162183
2940535060 -0.677879 0.032817
2941030600 -0.128721 0.676942
2941526140 -0.531911 0.375454
2942021680 -0.756639 -0.508846
2942517220 -0.635431 0.281346
2943012760 -0.726972 0.099093
2943508300 -0.073711 0.806044
2944003840 -0.396731 0.643086
2944499380 -0.7755 -0.459485
2944994920 -0.376953 0.695977
2945490460 -0.732186 0.185104
2945986000 -0.043167 0.926712
2946481540 -0.541077 0.572255
2946977080 -0.695656 -0.609325
2947472620 -0.392409 0.766286
2947968160 -0.522793 0.632459
2948463700 0.145707 1.048123
2948959240 -0.778752 -0.160326
2949454780 -0.729817 -0.344316
2949950320 -0.525764 0.711406
2950445860 -0.441937 0.83397
2950941400 -0.670528 0.575332
2951436940 -0.226764 1.067044
2951932480 -0.080295 1.131145
2952428020 -0.271469 1.058565
2952923560 -0.176182 1.132471
2953419100 -0.218535 1.118488
2953914640 -0.268852 1.131444
2954410180 -0.099068 1.221508
2954905720 -0.238169 1.166271
2955401260 -0.065229 1.267971
2955896800 -0.314591 1.145198
2956392340 -0.098217 1.25938
2956887880 -0.116205 1.293166
2957383420 -0.747726 -0.375055
2957878960 -0.746243 -0.468503
2958374500 -0.771544 -0.473855
2958870040 -0.767197 -0.482751
2959365580 -0.739317 -0.375294
2959861120 -0.748709 -0.459934
2960356660 -0.756543 -0.485724
2960852200 -0.728295 -0.340701
2961347740 -0.746627 -0.422312
2961843280 -0.707941 -0.493284
2962338820 -0.749578 -0.425774
2962834360 -0.748392 -0.403098
2963329900 -0.780251 -0.441633
2963825440 -0.777615 -0.43726
2964320980 -0.761899 -0.317262
2964816520 -0.811673 -0.413105
2965312060 -0.993184 -0.056514
2965807600 -0.839518 -0.384236
2966303140 -0.817596 -0.40379
2966798680 -0.808471 -0.430354
2967294220 -0.824645 -0.415857
2967789760 -0.800915 -0.305788
2968285300 -0.843699 -0.407512
2968780840 -0.839639 -0.466866
2969276380 -0.829437 -0.298008
2969771920 -0.840867 -0.401642
2970267460 -0.812022 -0.440142
2970763000 -0.830653 -0.39413
2971258540 -0.829306 -0.386028
2971754080 -0.822772 -0.398033
2972249620 -0.825731 -0.39866
2972745160 -0.815962 -0.279565
2973240700 -0.78734 -0.39497
2973736240 -0.794378 -0.423989
2974231780 -0.830485 -0.268071
2974727320 -0.814902 -0.367779
2975222860 -1.048242 0.311309
2975718400 -0.855373 -0.32573
2976213940 -0.795621 -0.33972
2976709480 -0.821313 -0.395991
2977205020 -0.859133 -0.386737
2977700560 -0.83321 -0.284545
2978196100 -0.836108 -0.379455
2978691640 -0.790004 -0.421835
2979187180 -0.868155 -0.274119
2979682720 -0.807954 -0.405272
2980178260 -0.940585 -0.264492
2980673800 -0.809983 -0.381837
2981169340 -0.810801 -0.317777
2981664880 -0.834391 -0.370723
2982160420 -0.783761 -0.386113
2982655960 -0.822424 -0.29876
2983151500 -0.804607 -0.344246
2983647040 -0.772117 -0.376497
2984142580 -0.811025 -0.271492
2984638120 -0.775084 -0.354635
2985133660 -0.770235 -0.327483
2985629200 -0.757902 -0.306823
2986124740 -0.756626 -0.261153
2986620280 -0.730403 -0.294901
2987115820 -0.740834 -0.301102
2987611360 -0.782672 -0.207195
2988106900 -0.780567 -0.294939
2988602440 -0.768246 -0.306001
2989097980 -0.82272 -0.216078
2989593520 -0.815054 -0.268876
2990089060 -0.811753 -0.239879
2990584600 -0.816788 -0.267469
2991080140 -0.81779 -0.20255
2991575680 -0.817414 -0.240552
2992071220 -0.82455 -0.259261
2992566760 -0.840605 -0.172189
2993062300 -0.842245 -0.20848
2993557840 -0.819721 -0.231327
2994053380 -0.838348 -0.192832
2994548920 -0.839717 -0.187963
2995044460 -0.856001 -0.179457
2995540000 -0.865234 -0.179159
2996035540 -0.846258 -0.115721
2996531080 -0.857087 -0.155225
2997026620 -0.860227 -0.153386
2997522160 -0.85886 -0.094913
2998017700 -0.85891 -0.115539
2998513240 -0.829902 -0.124969
2999008780 -0.848004 -0.081184
2999504320 -0.830601 -0.086655
2999999860 -0.863926 -0.073789
