# HZ S RI R 50
1000000 -0.997054 0.010249
1990000 -0.992831 -0.031574
2980000 -1.014146 -0.010553
3970000 -1.052401 0.022707
4960000 -1.088348 0.070266
5950000 -1.106032 0.10844
6940000 -1.119133 0.163909
7930000 -1.134289 0.154222
8920000 -1.13535 0.182936
9910000 -1.154927 0.132494
10900000 -1.075654 0.217484
11890000 -1.061974 0.239885
12880000 -1.005925 0.2715
13870000 -0.961279 0.368719
14860000 -0.950542 0.560286
15850000 -0.843695 0.825953
16840000 -0.637845 1.095294
17830000 -0.352738 1.320742
18820000 0.091209 1.427534
19810000 0.598393 1.319908
20800000 0.943396 1.084573
21790000 1.173412 0.698656
22780000 1.217787 0.214832
23770000 -1.180276 -0.232531
24760000 -0.118867 1.120717
25750000 0.159375 1.009828
26740000 0.248899 0.942448
27730000 0.430628 0.84814
28720000 0.477844 0.820306
29710000 0.323696 0.891101
30700000 0.511819 0.79649
31690000 0.439058 0.85188
32680000 0.592345 0.705274
33670000 0.609227 0.689409
34660000 0.535733 0.756372
35650000 0.674075 0.606204
36640000 0.616046 0.65196
37630000 0.735581 0.475784
38620000 0.753992 0.46093
39610000 0.713816 0.501548
40600000 0.770935 0.337103
41590000 0.715721 0.381032
42580000 0.770719 0.191276
43570000 0.552106 -0.509541
44560000 0.001004 0.78458
45550000 0.056105 0.733635
46540000 0.110434 0.68179
47530000 0.187663 0.609091
48520000 0.20789 0.538661
49510000 0.22799 0.470059
50500000 0.228808 0.381843
51490000 0.222232 0.321338
52480000 0.212918 0.24576
53470000 0.179709 0.191461
54460000 0.141441 0.153073
55450000 0.108228 0.115391
56440000 0.070059 0.09354
57430000 0.034326 0.072911
58420000 0.007358 0.067441
59410000 -0.021204 0.07134
60400000 -0.041633 0.070366
61390000 -0.060669 0.074005
62380000 -0.070358 0.078137
63370000 -0.08255 0.083826
64360000 -0.087859 0.093105
65350000 -0.08708 0.099428
66340000 -0.084995 0.104627
67330000 -0.078732 0.105417
68320000 -0.074219 0.105575
69310000 -0.06498 0.100872
70300000 -0.089995 -0.122785
71290000 -0.054491 0.101946
72280000 -0.044253 0.091766
73270000 -0.039145 0.084374
74260000 -0.03028 0.078233
75250000 -0.022632 0.066261
76240000 -0.0181 0.054033
77230000 -0.00924 0.041749
78220000 -0.008592 0.030056
79210000 -0.003454 0.016922
80200000 -0.001793 0.00535
81190000 -0.000801 -0.007252
82180000 -0.001981 -0.029998
83170000 -0.002121 -0.032821
84160000 -0.001933 -0.041854
85150000 -0.004648 -0.056263
86140000 -0.008846 -0.06003
87130000 -0.012615 -0.073098
88120000 -0.009409 -0.077931
89110000 -0.013729 -0.085328
90100000 -0.013676 -0.096142
91090000 -0.013829 -0.094303
92080000 -0.011289 -0.101188
93070000 -0.007517 -0.102422
94060000 -0.004126 -0.106655
95050000 0.002102 -0.118285
96040000 0.011505 -0.117444
97030000 0.02431 -0.125559
98020000 0.039783 -0.134636
99010000 0.052595 -0.145479
100000000 0.062731 -0.170028
