# HZ S RI R 50
2300000000 0.497445 1.005448
2310000000 -0.751285 -0.706684
2320000000 -0.873268 -0.657134
2330000000 -0.913046 -0.634902
2340000000 -0.922035 -0.58517
2350000000 -0.936163 -0.577699
2360000000 -1.048261 -0.437861
2370000000 -0.448752 -0.878598
2380000000 -1.152293 -0.080328
2390000000 -0.974373 -0.483577
2400000000 -0.708637 -0.723774
2410000000 -0.565552 -0.788028
2420000000 -0.587461 -0.795064
2430000000 -1.089365 -0.107479
2440000000 -1.101101 -0.072274
2450000000 -1.096295 -0.044278
2460000000 -0.689742 -0.670851
2470000000 -0.778013 -0.577493
2480000000 -1.041794 0.103495
2490000000 -1.021915 0.121432
2500000000 -0.964819 0.288749
2510000000 -0.686596 -0.488737
2520000000 -0.861367 -0.15795
2530000000 -0.908228 0.186636
2540000000 -0.757432 0.581188
2550000000 -0.765552 0.535801
2560000000 -0.788185 -0.062954
2570000000 -0.504805 0.696909
2580000000 -0.623727 0.431831
2590000000 -0.447806 0.560315
2600000000 -0.51743 0.392316
2610000000 -0.458336 0.35958
2620000000 -0.153896 0.476596
2630000000 0.001961 0.400126
2640000000 0.048048 0.386583
2650000000 0.064837 0.458658
2660000000 0.246848 0.302948
2670000000 0.299063 -0.089714
2680000000 0.148688 -0.397719
2690000000 0.183208 -0.462093
2700000000 0.535907 0.015857
2710000000 0.089381 -0.654575
2720000000 0.168417 -0.659027
2730000000 0.480773 -0.441465
2740000000 0.394694 -0.554156
2750000000 -0.616059 -0.718891
2760000000 -0.42281 -0.824825
2770000000 0.062579 -0.797822
2780000000 0.133142 -0.765374
2790000000 0.059757 -0.802031
2800000000 -0.652276 -0.694676
2810000000 -0.853625 -0.521613
2820000000 -0.868307 -0.480676
2830000000 -0.21881 -0.801136
2840000000 -0.473032 -0.724108
2850000000 -0.913962 -0.333213
2860000000 -0.855067 -0.378974
2870000000 -0.859757 -0.340574
2880000000 -0.370286 -0.697451
2890000000 -0.671126 -0.513635
2900000000 -0.786524 -0.363961
2910000000 -0.856611 -0.115066
2920000000 -0.78776 -0.259295
2930000000 -0.701765 -0.367555
2940000000 -0.714012 -0.300745
2950000000 -0.775785 0.108121
2960000000 -0.73445 0.165936
2970000000 -0.697973 0.219427
2980000000 -0.724038 -0.00137
2990000000 -0.69661 0.146085
3000000000 -0.592207 0.329674
3010000000 -0.429872 0.442188
3020000000 -0.3275 0.484567
3030000000 -0.597728 0.303983
3040000000 -0.322205 0.510737
3050000000 -0.274188 0.531751
3060000000 0.115428 0.497129
3070000000 0.058299 0.55748
3080000000 -0.299065 0.587672
3090000000 0.433295 0.344313
3100000000 0.381337 0.461508
3110000000 0.018718 0.611398
3120000000 0.428196 0.451076
3130000000 0.718246 -0.026086
3140000000 0.622496 0.30655
3150000000 0.597013 0.380215
3160000000 0.254339 0.665641
3170000000 0.779124 -0.305809
3180000000 0.785135 -0.032381
3190000000 0.798085 -0.274452
3200000000 0.779794 -0.404588
3210000000 0.808047 -0.267281
3220000000 0.819766 0.005533
3230000000 0.846481 -0.235067
3240000000 0.647014 -0.680297
3250000000 0.638258 -0.713634
3260000000 0.608765 -0.76242
3270000000 0.406584 -0.894709
3280000000 0.510738 -0.832197
3290000000 0.426668 -0.864371
3300000000 0.55066 -0.79331
