# HZ S RI R 50
2000000000 0.282378 1.052641
2010000000 0.424243 -0.744735
2020000000 0.194975 -0.808216
2030000000 0.1207 -0.823407
2040000000 0.262346 -0.825716
2050000000 0.049231 -0.893412
2060000000 0.502464 -0.765941
2070000000 0.087304 -0.86542
2080000000 -0.721392 -0.596475
2090000000 -0.23399 -0.838727
2100000000 0.161299 -0.865758
2110000000 0.277505 -0.819264
2120000000 0.210373 -0.821187
2130000000 -0.802549 -0.553936
2140000000 -0.855309 -0.510383
2150000000 -0.888885 -0.464996
2160000000 0.014125 -0.895109
2170000000 -0.262486 -0.884906
2180000000 -0.762423 -0.628956
2190000000 -0.982822 -0.339227
2200000000 -1.061769 -0.255383
2210000000 -0.063119 -0.890444
2220000000 -0.874071 -0.479324
2230000000 -0.774214 -0.64608
2240000000 -1.117775 0.028621
2250000000 -1.022904 -0.282409
2260000000 -0.341201 -0.836389
2270000000 -1.037626 0.44
2280000000 -1.029135 -0.206276
2290000000 -1.070373 0.34969
2300000000 -0.644985 -0.680121
2310000000 -0.555096 -0.734133
2320000000 -1.065665 0.250589
2330000000 -1.007147 0.496814
2340000000 -1.036806 0.191331
2350000000 -0.719228 -0.543972
2360000000 -0.962375 -0.184258
2370000000 -1.029292 0.033534
2380000000 -0.867607 0.613055
2390000000 -0.893212 0.545834
2400000000 -0.838487 -0.314431
2410000000 -0.672037 0.777719
2420000000 -0.929264 0.381919
2430000000 -0.846125 -0.120493
2440000000 -0.891066 0.196663
2450000000 -0.524898 0.797628
2460000000 -0.706082 0.613887
2470000000 -0.815648 0.303539
2480000000 -0.79899 0.250283
2490000000 -0.542035 0.613126
2500000000 -0.553927 0.587494
2510000000 -0.283289 0.750524
2520000000 -0.262136 0.788175
2530000000 -0.597753 0.49889
2540000000 -0.195524 0.763739
2550000000 -0.270878 0.750909
2560000000 0.093501 0.699725
2570000000 0.047116 0.704158
2580000000 -0.361256 0.665952
2590000000 0.125267 0.636243
2600000000 0.208119 0.577578
2610000000 0.324247 0.421102
2620000000 0.338954 0.419026
2630000000 0.147913 0.654839
2640000000 0.449068 0.240562
2650000000 0.469176 0.252851
2660000000 0.462088 -0.1398
2670000000 0.480176 -0.166552
2680000000 0.552871 0.168128
2690000000 0.365127 -0.434515
2700000000 0.149824 -0.637124
2710000000 0.283603 -0.545696
2720000000 0.513715 -0.277811
2730000000 0.331011 -0.530664
2740000000 -0.210191 -0.706501
2750000000 -0.61048 -0.606769
2760000000 -0.540967 -0.603408
2770000000 0.173527 -0.584341
2780000000 -0.506836 -0.626143
2790000000 -0.446587 -0.612184
2800000000 -0.267087 -0.610298
2810000000 -0.502559 -0.520444
2820000000 -0.804695 -0.123223
2830000000 -0.803979 -0.033383
2840000000 -0.687896 -0.270499
2850000000 -0.630555 -0.339586
2860000000 -0.708267 -0.150747
2870000000 -0.721285 0.165668
2880000000 -0.686912 0.232626
2890000000 -0.648232 0.293467
2900000000 -0.552866 0.402446
2910000000 -0.559918 0.393579
2920000000 -0.69533 0.169948
2930000000 -0.238229 0.544603
2940000000 -0.491722 0.478614
2950000000 -0.287464 0.565714
2960000000 -0.215901 0.575638
2970000000 -0.142824 0.595259
2980000000 -0.060037 0.629792
2990000000 0.020658 0.654614
3000000000 -0.025532 0.659155
