# HZ S RI R 50
2000000000 0.412996 1.009344
2000991080 0.346025 -0.77536
2001982160 0.330353 -0.778623
2002973240 0.31694 -0.779062
2003964320 0.308413 -0.788318
2004955400 0.135127 -0.809927
2005946480 0.127696 -0.817962
2006937560 0.749094 -0.516498
2007928640 -0.06666 -0.805865
2008919720 -0.250435 -0.777421
2009910800 0.576888 -0.655764
2010901880 0.678859 -0.57439
2011892960 0.659509 -0.594964
2012884040 0.064971 -0.817539
2013875120 0.051411 -0.813758
2014866200 0.050605 -0.812375
2015857280 0.670022 -0.583962
2016848360 0.6398 -0.61535
2017839440 -0.155646 -0.798992
2018830520 0.021656 -0.827146
2019821600 -0.145111 -0.798101
2020812680 0.733931 -0.521484
2021803760 0.471939 -0.712559
2022794840 -0.000491 -0.820225
2023785920 -0.368187 -0.739589
2024777000 -0.199231 -0.802131
2025768080 0.716475 -0.545264
2026759160 0.124746 -0.815874
2027750240 0.282519 -0.790336
2028741320 -0.394223 -0.735083
2029732400 -0.03827 -0.822859
2030723480 0.675788 -0.575139
2031714560 -0.236795 -0.796263
2032705640 -0.260482 -0.807518
2033696720 -0.073732 -0.825384
2034687800 0.562967 -0.672361
2035678880 0.680811 -0.589159
2036669960 -0.273779 -0.798039
2037661040 -0.282136 -0.796442
2038652120 -0.119052 -0.844451
2039643200 0.689182 -0.585443
2040634280 0.245132 -0.831078
2041625360 0.069831 -0.870278
2042616440 0.570399 -0.690793
2043607520 0.560001 -0.701625
2044598600 -0.316964 -0.803575
2045589680 0.062869 -0.865859
2046580760 0.434164 -0.775283
2047571840 0.568692 -0.712012
2048562920 0.549065 -0.723101
2049554000 -0.350867 -0.823631
2050545080 -0.327637 -0.830399
2051536160 -0.356866 -0.813786
2052527240 0.588659 -0.703911
2053518320 0.39764 -0.813538
2054509400 -0.143943 -0.890198
2055500480 -0.362325 -0.820854
2056491560 -0.377985 -0.804481
2057482640 0.657119 -0.642989
2058473720 0.005267 -0.893021
2059464800 0.174196 -0.866271
2060455880 -0.224301 -0.871906
2061446960 -0.214625 -0.853654
2062438040 0.631331 -0.667605
2063429120 0.298714 -0.843759
2064420200 0.115871 -0.871567
2065411280 -0.445439 -0.795602
2066402360 -0.46269 -0.785248
2067393440 0.593832 -0.688485
2068384520 -0.66802 -0.632647
2069375600 -0.112626 -0.865728
2070366680 -0.661124 -0.626993
2071357760 0.257463 -0.842303
2072348840 0.241453 -0.841154
2073339920 -0.317338 -0.825251
2074331000 -0.685252 -0.625884
2075322080 -0.159452 -0.861945
2076313160 0.397629 -0.792866
2077304240 -0.176589 -0.878094
2078295320 -0.17841 -0.869893
2079286400 0.379789 -0.807027
2080277480 0.355832 -0.810994
2081268560 -0.744079 -0.604324
2082259640 -0.390431 -0.803629
2083250720 0.059983 -0.866184
2084241800 0.344979 -0.801628
2085232880 0.328086 -0.81126
2086223960 -0.422848 -0.79881
2087215040 -0.436278 -0.790686
2088206120 -0.433339 -0.787307
2089197200 -0.602004 -0.667262
2090188280 -0.192292 -0.858346
2091179360 0.48129 -0.734391
2092170440 -0.911173 -0.361476
2093161520 -0.073986 -0.852936
2094152600 -0.467771 -0.754189
2095143680 -0.258629 -0.834698
2096134760 -0.470128 -0.753877
2097125840 -0.460028 -0.780589
2098116920 -0.496187 -0.760172
2099108000 0.284176 -0.827283
2100099080 0.519049 -0.730218
2101090160 0.476004 -0.755845
2102081240 0.573854 -0.684906
2103072320 0.594667 -0.678302
2104063400 0.606193 -0.682858
2105054480 0.577738 -0.705231
2106045560 0.553222 -0.713247
2107036640 0.598834 -0.67199
2108027720 0.590733 -0.670274
2109018800 0.535094 -0.680142
2110009880 0.574049 -0.679349
2111000960 0.424952 -0.7551
2111992040 0.53777 -0.690868
2112983120 0.552434 -0.676795
2113974200 0.551299 -0.669078
2114965280 0.542936 -0.678506
2115956360 0.526602 -0.677172
2116947440 0.547812 -0.661661
2117938520 0.552407 -0.661961
2118929600 0.49574 -0.671704
2119920680 -0.870788 -0.30915
2120911760 -0.608111 -0.695818
2121902840 -0.939997 -0.335614
2122893920 -0.975175 -0.293247
2123885000 -0.863507 -0.457037
2124876080 -0.968997 -0.285812
2125867160 -0.872735 -0.44287
2126858240 -0.987674 -0.236729
2127849320 -1.038204 -0.224087
2128840400 -0.916282 -0.407954
2129831480 -1.047823 -0.197191
2130822560 -0.959418 -0.387044
2131813640 -1.060043 -0.162567
2132804720 -1.035302 -0.200451
2133795800 -0.954721 -0.370249
2134786880 -1.072389 -0.149567
2135777960 -0.973253 -0.373505
2136769040 -1.042799 -0.162571
2137760120 -1.053318 -0.119599
2138751200 -0.997653 -0.310455
2139742280 -1.049379 -0.111849
2140733360 -0.909319 0.775398
2141724440 0.431001 -0.796886
2142715520 0.457492 -0.791507
2143706600 0.464761 -0.789374
2144697680 0.400032 -0.794703
2145688760 0.423884 -0.796139
2146679840 0.260291 -0.863273
2147670920 0.397193 -0.813952
2148662000 0.402414 -0.804327
2149653080 0.407611 -0.818633
2150644160 0.379137 -0.817952
2151635240 0.370656 -0.817032
2152626320 0.391078 -0.809037
2153617400 0.391633 -0.819104
2154608480 0.338224 -0.82334
2155599560 0.365525 -0.815826
2156590640 0.388093 -0.806354
2157581720 0.360572 -0.817824
2158572800 0.346736 -0.821327
2159563880 0.032315 -0.915836
2160554960 0.342545 -0.833641
2161546040 0.330544 -0.818137
2162537120 0.362702 -0.810972
2163528200 0.376646 -0.814805
2164519280 0.306894 -0.803434
2165510360 0.345468 -0.823838
2166501440 0.187317 -0.871468
2167492520 0.330051 -0.811917
2168483600 0.336355 -0.810455
2169474680 0.358355 -0.814198
2170465760 0.334864 -0.819934
2171456840 0.337778 -0.80664
2172447920 0.376406 -0.801979
2173439000 0.375239 -0.806686
2174430080 0.331514 -0.812357
2175421160 0.373848 -0.800922
2176412240 0.72003 -0.571057
2177403320 0.34576 -0.811603
2178394400 0.384771 -0.802171
2179385480 0.363578 -0.822885
2180376560 0.355664 -0.800957
2181367640 0.388688 -0.809137
2182358720 0.378869 -0.814791
2183349800 0.315917 -0.808807
2184340880 0.327735 -0.824894
2185331960 0.164957 -0.877008
2186323040 0.287947 -0.842037
2187314120 0.283376 -0.830764
2188305200 0.299555 -0.841781
2189296280 0.28381 -0.861948
2190287360 0.24814 -0.853711
2191278440 0.270251 -0.852727
2192269520 0.274943 -0.866912
2193260600 0.193051 -0.86625
2194251680 0.234285 -0.86202
2195242760 0.039734 -0.900123
2196233840 0.203953 -0.860861
2197224920 0.197665 -0.876003
2198216000 0.204629 -0.875817
2199207080 0.172265 -0.894296
2200198160 0.464983 1.070244
2201189240 -0.613398 -0.747691
2202180320 -0.8037 -0.615201
2203171400 -0.820423 -0.591638
2204162480 -0.613067 -0.731576
2205153560 -1.045686 -0.189706
2206144640 -0.365815 -0.852599
2207135720 -0.475334 -0.793966
2208126800 -1.124801 0.247774
2209117880 -0.669914 -0.719429
2210108960 -0.446747 -0.805424
2211100040 -0.071973 -0.898428
2212091120 -0.709115 -0.690109
2213082200 -0.840992 -0.508103
2214073280 -1.096198 0.058531
2215064360 -1.079185 -0.160935
2216055440 -0.12193 -0.896403
2217046520 -0.542451 -0.753503
2218037600 -0.864226 -0.513617
2219028680 -1.100318 0.098439
2220019760 -1.050138 -0.117885
2221010840 -0.153752 -0.902047
2222001920 -0.871359 -0.490017
2222993000 -0.740598 -0.623913
2223984080 -1.113609 0.091967
2224975160 -0.995937 -0.326464
2225966240 -0.134958 -0.867595
2226957320 -1.100658 0.282474
2227948400 -0.893984 -0.491684
2228939480 -1.105273 0.113238
2229930560 -0.542256 -0.744388
2230921640 -0.190041 -0.87805
2231912720 -1.064837 -0.11729
2232903800 -1.074358 -0.100042
2233894880 -0.980674 -0.317904
2234885960 -0.385165 -0.846068
2235877040 -0.156636 -0.871976
2236868120 -1.01014 -0.320777
2237859200 -1.06402 -0.153586
2238850280 -0.976243 -0.344435
2239841360 -0.142027 -0.894821
2240832440 -0.71821 -0.642258
2241823520 -0.987785 -0.338819
2242814600 -0.322856 -0.859598
2243805680 -0.359719 -0.834872
2244796760 -1.062808 -0.127562
2245787840 -0.743985 -0.625907
2246778920 -0.560213 -0.761949
2247770000 -0.753755 -0.639992
2248761080 -0.216442 -0.853943
2249752160 -1.064591 -0.077179
2250743240 -1.004653 -0.253549
2251734320 -1.066109 -0.038494
2252725400 -0.44514 -0.774753
2253716480 -0.281329 -0.835915
2254707560 -1.079366 0.000571
2255698640 -1.043777 -0.157462
2256689720 -1.080417 0.233262
2257680800 -0.694731 -0.666642
2258671880 -0.331134 -0.81739
2259662960 -1.087848 0.037986
2260654040 -1.047293 -0.120881
2261645120 -1.098186 0.247866
2262636200 -1.047408 -0.132043
2263627280 -0.349412 -0.817925
2264618360 -1.059517 -0.116565
2265609440 -0.73193 -0.602669
2266600520 -1.090052 0.094104
2267591600 -1.070549 0.094177
2268582680 -0.387138 -0.800436
2269573760 -0.905987 -0.43422
2270564840 -0.888474 -0.442678
2271555920 -1.087517 0.280266
2272547000 -1.094899 0.106213
2273538080 -0.401314 -0.809455
2274529160 -1.060626 -0.076555
2275520240 -0.900899 -0.419966
2276511320 -1.07711 0.321493
2277502400 -1.067228 -0.089313
2278493480 -0.447149 -0.81357
2279484560 -1.046682 0.472548
2280475640 -1.033435 -0.244708
2281466720 -0.436842 -0.805513
2282457800 -0.819187 -0.572021
2283448880 -1.063323 0.314599
2284439960 -1.084692 0.137452
2285431040 -0.799119 -0.543184
2286422120 -0.666458 -0.680896
2287413200 -0.952613 -0.342428
2288404280 -0.9541 -0.350423
2289395360 -1.071642 0.177563
2290386440 -1.085 -0.002685
2291377520 -1.050698 0.375202
2292368600 -1.07387 0.026721
2293359680 -0.518268 -0.777342
2294350760 -1.081082 0.013294
2295341840 -0.838913 -0.481523
2296332920 -1.076574 0.010262
2297324000 -1.055206 -0.02372
2298315080 -1.062821 -0.019747
2299306160 -1.054338 -0.014704
2300297240 -0.481948 -0.758699
2301288320 -0.32566 -0.807706
2302279400 -0.302702 -0.824021
2303270480 -0.31664 -0.833425
2304261560 -0.312434 -0.817526
2305252640 -0.304232 -0.818239
2306243720 -0.312166 -0.812835
2307234800 -0.323356 -0.828274
2308225880 -0.318219 -0.818161
2309216960 -0.321307 -0.821308
2310208040 -0.361345 -0.819033
2311199120 -0.356245 -0.810138
2312190200 -0.373289 -0.811684
2313181280 -0.367157 -0.792723
2314172360 -0.372841 -0.797623
2315163440 -0.413173 -0.777411
2316154520 -0.674692 0.919033
2317145600 -1.03672 0.382762
2318136680 -0.973206 0.533747
2319127760 -1.030915 0.417153
2320118840 -0.981016 0.512181
2321109920 -1.039113 0.392987
2322101000 -0.9813 0.541378
2323092080 -0.953803 0.578992
2324083160 -1.017063 0.45315
2325074240 -0.946277 0.585769
2326065320 -1.019143 0.450994
2327056400 -0.942532 0.602782
2328047480 -0.945196 0.57933
2329038560 -1.019672 0.429434
2330029640 -0.92822 0.625985
2331020720 -1.002876 0.484877
2332011800 -0.940265 0.599049
2333002880 -0.941497 0.602169
2333993960 -0.989055 0.477713
2334985040 -0.931427 0.638885
2335976120 -0.9794 0.495599
2336967200 -0.938817 0.605454
2337958280 -1.010171 -0.121503
2338949360 -0.553237 -0.69395
2339940440 -0.549587 -0.685757
2340931520 -0.570024 -0.681537
2341922600 -0.557661 -0.6719
2342913680 -0.550614 -0.696055
2343904760 -0.575913 -0.69261
2344895840 -0.565761 -0.676511
2345886920 -0.549114 -0.698521
2346878000 -0.532394 -0.678942
2347869080 -0.584175 -0.651893
2348860160 -0.564369 -0.656176
2349851240 -0.580794 -0.665665
2350842320 -0.589718 -0.659065
2351833400 -0.597767 -0.635279
2352824480 -0.608803 -0.668553
2353815560 -0.599348 -0.644111
2354806640 -0.627751 -0.645917
2355797720 -0.591969 -0.666147
2356788800 -0.586956 -0.670153
2357779880 -0.632042 -0.646873
2358770960 -0.596851 -0.649563
2359762040 -0.643656 -0.633184
2360753120 -0.645669 -0.631584
2361744200 -0.653579 -0.593926
2362735280 -0.654773 -0.601097
2363726360 -0.677388 -0.605152
2364717440 -0.671858 -0.565251
2365708520 -0.662299 -0.596695
2366699600 -0.67874 -0.595825
2367690680 -0.713319 -0.559293
2368681760 -0.678073 -0.568731
2369672840 -0.672338 -0.574012
2370663920 -0.823321 -0.429817
2371655000 -0.693717 -0.546071
2372646080 -0.695337 -0.574342
2373637160 -0.678427 -0.565976
2374628240 -0.71951 -0.555961
2375619320 -0.695761 -0.569511
2376610400 -0.822563 -0.451825
2377601480 -0.693741 -0.53246
2378592560 -0.71894 -0.545659
2379583640 -0.700462 -0.559964
2380574720 -0.73047 -0.54231
2381565800 -0.726789 -0.528925
2382556880 -0.734089 -0.533681
2383547960 -0.716866 -0.543397
2384539040 -0.73766 -0.497136
2385530120 -0.721683 -0.518033
2386521200 -0.736147 -0.507114
2387512280 -0.729282 -0.514257
2388503360 -0.696851 -0.497425
2389494440 -0.714875 -0.505768
2390485520 -0.730897 -0.484642
2391476600 -0.719245 -0.482824
2392467680 -0.730932 -0.485492
2393458760 -0.704758 -0.465782
2394449840 -0.719134 -0.425904
2395440920 -0.713775 -0.48681
2396432000 -0.73878 -0.450042
2397423080 -0.722285 -0.437649
2398414160 -0.737115 -0.459639
2399405240 -0.733252 -0.442943
2400396320 0.615826 0.613052
2401387400 -0.957074 0.308059
2402378480 -0.948983 0.320957
2403369560 -0.911141 0.456216
2404360640 -0.952852 0.316847
2405351720 -0.907975 0.455997
2406342800 -0.903872 -0.147403
2407333880 -0.89679 0.475541
2408324960 -0.677649 0.766742
2409316040 -0.934097 0.022451
2410307120 -0.937339 0.32357
2411298200 -0.871066 -0.216015
2412289280 -0.821839 0.597739
2413280360 -0.827453 0.594599
2414271440 -0.826293 0.605823
2415262520 -0.930961 0.052473
2416253600 -0.856764 -0.191026
2417244680 -0.832259 0.604021
2418235760 -0.820758 0.611399
2419226840 -0.824482 0.624901
2420217920 -0.926803 -0.051502
2421209000 -0.853151 -0.178493
2422200080 -0.864607 0.508036
2423191160 -0.792033 0.633189
2424182240 -0.897293 0.410165
2425173320 -0.918798 -0.014964
2426164400 -0.872078 -0.121534
2427155480 -0.835018 0.539941
2428146560 -0.766894 0.643789
2429137640 -0.817816 0.538076
2430128720 -0.870091 -0.111746
2431119800 -0.901338 0.179171
2432110880 -0.861471 0.437681
2433101960 -0.668248 0.720065
2434093040 -0.738443 0.643731
2435084120 -0.873162 -0.067706
2436075200 -0.877268 0.320409
2437066280 -0.878259 0.324343
2438057360 -0.654256 0.718973
2439048440 -0.80487 0.526063
2440039520 -0.869655 -0.070018
2441030600 -0.723632 0.634303
2442021680 -0.833803 0.435463
2443012760 -0.900017 0.06749
2444003840 -0.881989 0.058684
2444994920 -0.725773 0.621676
2445986000 -0.778342 0.540095
2446977080 -0.879763 0.295133
2447968160 -0.89051 0.191116
2448959240 -0.87797 0.105364
2449950320 -0.760366 0.571957
2450941400 -0.749248 0.577135
2451932480 -0.670581 0.67078
2452923560 -0.885832 0.113397
2453914640 -0.892505 0.145389
2454905720 -0.723077 0.611905
2455896800 -0.720788 0.610639
2456887880 -0.711931 0.618795
2457878960 -0.847812 0.019765
2458870040 -0.857646 0.302904
2459861120 -0.764305 0.530453
2460852200 -0.692721 0.625604
2461843280 -0.751289 0.528306
2462834360 -0.860418 0.181346
2463825440 -0.852902 0.207178
2464816520 -0.683097 0.604352
2465807600 -0.673632 0.612029
2466798680 -0.596225 0.671849
2467789760 -0.845841 0.094093
2468780840 -0.817036 0.325646
2469771920 -0.76576 0.431681
2470763000 -0.510856 0.714575
2471754080 -0.584763 0.655517
2472745160 -0.827233 0.103553
2473736240 -0.491745 0.711937
2474727320 -0.695906 0.522825
2475718400 -0.487805 0.707798
2476709480 -0.686494 0.521802
2477700560 -0.815408 0.257695
2478691640 -0.610524 0.604225
2479682720 -0.542035 0.650974
2480673800 -0.815272 0.15093
2481664880 -0.660487 0.536611
2482655960 -0.376759 0.731732
2483647040 -0.657153 0.532728
2484638120 -0.7535 0.363159
2485629200 -0.792578 0.169198
2486620280 -0.355337 0.725233
2487611360 -0.686219 0.469345
2488602440 -0.560649 0.605719
2489593520 -0.481676 0.657751
2490584600 -0.669188 0.485565
2491575680 -0.676942 0.470633
2492566760 -0.779441 0.22125
2493557840 -0.396008 0.68763
2494548920 -0.643541 0.491861
2495540000 -0.515493 0.619504
2496531080 -0.442079 0.665506
2497522160 -0.436012 0.667839
2498513240 -0.499987 0.628793
2499504320 -0.357059 0.702777
2500495400 -0.748879 0.264267
2501486480 -0.755262 0.194605
2502477560 -0.756627 0.179416
2503468640 -0.751735 0.19338
2504459720 -0.740674 0.198959
2505450800 -0.733481 0.208186
2506441880 -0.735563 0.211297
2507432960 -0.737239 0.226328
2508424040 -0.729272 0.236329
2509415120 -0.726009 0.251557
2510406200 -0.719863 0.253366
2511397280 -0.723689 0.270689
2512388360 -0.722101 0.271258
2513379440 -0.686311 0.376988
2514370520 -0.710039 0.300716
2515361600 -0.669886 0.355486
2516352680 -0.704629 0.313342
2517343760 -0.695558 0.327221
2518334840 -0.688341 0.360423
2519325920 -0.691535 0.355935
2520317000 -0.685336 0.363401
2521308080 -0.674297 0.375042
2522299160 -0.670937 0.37094
2523290240 -0.663242 0.385284
2524281320 -0.667798 0.393435
2525272400 -0.654815 0.395443
2526263480 -0.654074 0.402927
2527254560 -0.656164 0.410042
2528245640 -0.640069 0.4279
2529236720 -0.642625 0.418696
2530227800 -0.636598 0.425965
2531218880 -1.039328 0.463546
2532209960 -0.119628 0.764768
2533201040 -0.034774 0.746743
2534192120 -0.10517 0.758302
2535183200 -0.026235 0.750636
2536174280 -0.081491 0.766855
2537165360 0.004093 0.751812
2538156440 0.012927 0.747761
2539147520 -0.061997 0.763737
2540138600 0.019218 0.744045
2541129680 -0.038942 0.760305
2542120760 0.044164 0.735293
2543111840 0.031405 0.73544
2544102920 -0.028592 0.75505
2545094000 0.047116 0.733247
2546085080 -0.0222 0.74424
2547076160 -0.002535 0.737754
2548067240 0.07316 0.721941
2549058320 0.003123 0.735393
2550049400 0.073334 0.708721
2551040480 0.022317 0.738617
2552031560 0.164195 0.662852
2553022640 -0.52658 0.61083
2554013720 -0.534699 0.611222
2555004800 -0.51693 0.616369
2555995880 -0.514829 0.624864
2556986960 -0.516328 0.621297
2557978040 -0.496591 0.635422
2558969120 -0.49864 0.636235
2559960200 -0.49496 0.63022
2560951280 -0.487908 0.643299
2561942360 -0.483155 0.643486
2562933440 -0.471469 0.651678
2563924520 -0.469806 0.655916
2564915600 -0.414304 0.71146
2565906680 -0.467835 0.650088
2566897760 -0.463883 0.652774
2567888840 -0.451491 0.660164
2568879920 -0.449906 0.663396
2569871000 -0.429749 0.667554
2570862080 -0.435359 0.665979
2571853160 -0.432148 0.669509
2572844240 -0.411273 0.674281
2573835320 -0.413289 0.663467
2574826400 -0.403632 0.664421
2575817480 -0.396772 0.660839
2576808560 -0.389642 0.66357
2577799640 -0.371875 0.665094
2578790720 0.119285 -0.255216
2579781800 -0.350635 0.667995
2580772880 -0.356949 0.663047
2581763960 -0.344183 0.664927
2582755040 -0.320988 0.673858
2583746120 -0.324993 0.67441
2584737200 -0.319516 0.675045
2585728280 -0.314676 0.679461
2586719360 -0.315665 0.682216
2587710440 -0.300907 0.682323
2588701520 -0.295912 0.686762
2589692600 -0.291022 0.692956
2590683680 -0.27879 0.69858
2591674760 -0.27129 0.698821
2592665840 -0.255736 0.710832
2593656920 -0.263323 0.702705
2594648000 -0.261667 0.713874
2595639080 -0.237956 0.714139
2596630160 -0.246324 0.720717
2597621240 -0.160778 0.724949
2598612320 -0.219956 0.720332
2599603400 -0.213874 0.71359
2600594480 -0.655091 -0.042961
2601585560 0.149971 0.613335
2602576640 0.160689 0.611518
2603567720 0.170945 0.600232
2604558800 0.184248 0.592056
2605549880 0.183147 0.591291
2606540960 0.231049 0.533806
2607532040 0.004292 0.687957
2608523120 0.3052 0.432675
2609514200 0.273213 0.501862
2610505280 0.089822 0.646362
2611496360 0.104747 0.648263
2612487440 0.05252 0.672935
2613478520 0.342085 0.397393
2614469600 0.29747 0.454726
2615460680 0.35511 0.373814
2616451760 0.079288 0.66082
2617442840 0.096685 0.658832
2618433920 0.357308 0.354354
2619425000 0.33047 0.42798
2620416080 0.371737 0.325894
2621407160 0.12039 0.647897
2622398240 0.214466 0.597375
2623389320 0.390559 0.29952
2624380400 0.369976 0.373498
2625371480 0.412666 0.193229
2626362560 0.104314 0.669561
2627353640 0.258202 0.566442
2628344720 0.391112 0.331855
2629335800 0.412747 0.246822
2630326880 0.424223 0.125804
2631317960 0.16138 0.650893
2632309040 0.345145 0.453953
2633300120 0.360568 0.448453
2634291200 0.438175 0.172533
2635282280 0.44188 0.176419
2636273360 0.199463 0.649008
2637264440 0.443816 0.070889
2638255520 0.41873 0.3517
2639246600 0.453554 0.158555
2640237680 0.456395 0.176959
2641228760 0.216627 0.643502
2642219840 0.451404 0.043574
2643210920 0.433154 0.335907
2644202000 0.28712 0.571799
2645193080 0.351896 0.497088
2646184160 0.460809 0.231105
2647175240 0.475941 0.124921
2648166320 0.368397 0.497738
2649157400 0.326405 0.54747
2650148480 0.404035 0.454572
2651139560 0.483889 0.145093
2652130640 0.476523 0.01997
2653121720 0.481337 0.002941
2654112800 0.429788 0.402132
2655103880 0.436815 0.38177
2656094960 0.494555 0.045668
2657086040 0.463344 -0.085928
2658077120 0.491888 0.01061
2659068200 0.440187 0.416154
2660059280 0.481931 0.306829
2661050360 0.494936 -0.033301
2662041440 0.454243 -0.169989
2663032520 0.383432 -0.289665
2664023600 0.46346 0.360564
2665014680 0.502376 0.24378
2666005760 0.482864 -0.111943
2666996840 0.430126 -0.23989
2667987920 0.430484 -0.246863
2668979000 0.464601 0.4103
2669970080 0.528698 0.062206
2670961160 0.467918 -0.196941
2671952240 0.316109 -0.417587
2672943320 0.401673 -0.324048
2673934400 0.483807 0.356319
2674925480 0.530266 -0.010376
2675916560 0.532617 -0.015298
2676907640 0.271666 -0.478242
2677898720 0.268883 -0.4732
2678889800 0.516666 0.304976
2679880880 0.353111 -0.411704
2680871960 0.531293 -0.075288
2681863040 0.547408 0.168108
2682854120 0.528408 -0.089798
2683845200 0.415289 -0.34029
2684836280 0.424146 -0.353343
2685827360 0.535683 -0.096503
2686818440 0.561042 0.116557
2687809520 0.547589 -0.037626
2688800600 0.387511 -0.409812
2689791680 0.270449 -0.520059
2690782760 0.367071 -0.4285
2691773840 0.124216 -0.601144
2692764920 0.355354 -0.460395
2693756000 0.574582 0.032361
2694747080 0.340996 -0.473787
2695738160 0.545957 -0.134416
2696729240 0.199353 -0.598316
2697720320 0.184805 -0.596302
2698711400 0.294312 -0.52083
2699702480 0.147679 -0.611563
2700693560 0.58534 0.070453
2701684640 0.575705 0.164226
2702675720 0.581656 0.133307
2703666800 0.581112 0.136939
2704657880 0.581687 0.129717
2705648960 0.583903 0.09781
2706640040 0.589473 0.108157
2707631120 0.583459 0.083249
2708622200 0.586765 0.073889
2709613280 0.58632 0.085653
2710604360 0.586941 0.044207
2711595440 0.588735 0.047551
2712586520 0.574805 -0.080047
2713577600 0.587602 0.035759
2714568680 0.587842 0.040403
2715559760 0.590884 0.006452
2716550840 0.59182 0.006034
2717541920 0.584865 0.002228
2718533000 0.587647 -0.004625
2719524080 0.585822 -0.009655
2720515160 0.583885 -0.032733
2721506240 0.584747 -0.028606
2722497320 0.581285 -0.059301
2723488400 0.582381 -0.060287
2724479480 0.57851 -0.064917
2725470560 0.575546 -0.095625
2726461640 0.588555 -0.087954
2727452720 0.569605 -0.102663
2728443800 0.564104 -0.120379
2729434880 0.567532 -0.119222
2730425960 0.556354 -0.159205
2731417040 0.558964 -0.157393
2732408120 0.548891 -0.151124
2733399200 0.546459 -0.179752
2734390280 0.544542 -0.199353
2735381360 0.535123 -0.212801
2736372440 0.539295 -0.225603
2737363520 0.53294 -0.208895
2738354600 0.45392 -0.427234
2739345680 -0.313818 -0.703455
2740336760 -0.620391 -0.585288
2741327840 -0.468163 -0.658411
2742318920 -0.648126 -0.560636
2743310000 -0.652586 -0.581361
2744301080 -0.491818 -0.645704
2745292160 -0.648203 -0.583298
2746283240 -0.504456 -0.637125
2747274320 -0.68011 -0.552515
2748265400 -0.696039 -0.522193
2749256480 -0.598635 -0.607903
2750247560 -0.681805 -0.51993
2751238640 -0.582299 -0.61603
2752229720 -0.69645 -0.523563
2753220800 -0.715158 -0.510206
2754211880 -0.607104 -0.570866
2755202960 -0.61581 -0.586798
2756194040 -0.615603 -0.578161
2757185120 -0.737273 -0.466877
2758176200 -0.743598 -0.48395
2759167280 -0.648553 -0.538723
2760158360 -0.543852 -0.617643
2761149440 0.361808 -0.441495
2762140520 0.345189 -0.468118
2763131600 0.348396 -0.477771
2764122680 0.341743 -0.463837
2765113760 0.32832 -0.485477
2766104840 0.327496 -0.484515
2767095920 0.301409 -0.494267
2768087000 0.300965 -0.492958
2769078080 0.303639 -0.491537
2770069160 0.28239 -0.527439
2771060240 0.281198 -0.515618
2772051320 0.239852 -0.538983
2773042400 0.26484 -0.532362
2774033480 0.250822 -0.533281
2775024560 0.224223 -0.560805
2776015640 0.224941 -0.554795
2777006720 0.215607 -0.547531
2777997800 0.012833 -0.642323
2778988880 0.21913 -0.535937
2779979960 0.187057 -0.553
2780971040 0.199929 -0.560566
2781962120 0.153815 -0.555977
2782953200 0.158648 -0.563501
2783944280 0.153857 -0.556638
2784935360 0.132661 -0.582038
2785926440 0.140536 -0.580944
2786917520 0.130585 -0.582152
2787908600 0.117315 -0.564033
2788899680 0.102123 -0.594549
2789890760 0.085063 -0.590532
2790881840 0.091409 -0.584909
2791872920 0.08682 -0.574019
2792864000 0.053002 -0.57922
2793855080 0.053534 -0.586183
2794846160 0.056196 -0.583112
2795837240 0.049729 -0.583079
2796828320 -0.001969 -0.594675
2797819400 0.028609 -0.589329
2798810480 -0.016886 -0.583632
2799801560 -0.002806 -0.602564
2800792640 0.213878 0.592719
2801783720 -0.625851 -0.465251
2802774800 -0.648269 -0.456588
2803765880 -0.65257 -0.450866
2804756960 -0.649652 -0.451472
2805748040 -0.640812 -0.431193
2806739120 -0.759134 -0.324847
2807730200 -0.3485 -0.592208
2808721280 -0.805836 -0.236732
2809712360 -0.670236 -0.39843
2810703440 -0.460694 -0.534604
2811694520 -0.409928 -0.56529
2812685600 -0.399499 -0.576389
2813676680 -0.756313 -0.272807
2814667760 -0.751467 -0.275141
2815658840 -0.759624 -0.265824
2816649920 -0.42555 -0.542329
2817641000 -0.44086 -0.542296
2818632080 -0.799816 -0.148878
2819623160 -0.761037 -0.23282
2820614240 -0.771873 -0.226295
2821605320 -0.468519 -0.518671
2822596400 -0.474299 -0.496868
2823587480 -0.767865 -0.193546
2824578560 -0.783314 -0.19015
2825569640 -0.806281 -0.090259
2826560720 -0.410371 -0.525288
2827551800 -0.614442 -0.416706
2828542880 -0.803223 -0.057047
2829533960 -0.797371 -0.058303
2830525040 -0.801166 -0.031872
2831516120 -0.45788 -0.500581
2832507200 -0.696003 -0.281313
2833498280 -0.711653 -0.281044
2834489360 -0.797288 0.071876
2835480440 -0.797931 0.095995
2836471520 -0.479482 -0.479589
2837462600 -0.754678 -0.148634
2838453680 -0.756817 -0.143152
2839444760 -0.787613 0.09782
2840435840 -0.786429 0.025695
2841426920 -0.508721 -0.458334
2842418000 -0.787585 0.119442
2843409080 -0.76055 -0.125034
2844400160 -0.606479 -0.375998
2845391240 -0.683988 -0.281277
2846382320 -0.785924 0.051207
2847373400 -0.773705 -0.022966
2848364480 -0.670551 -0.287699
2849355560 -0.619106 -0.33268
2850346640 -0.687995 -0.245194
2851337720 -0.771565 0.02018
2852328800 -0.768163 0.102252
2853319880 -0.763812 0.116794
2854310960 -0.639205 -0.313074
2855302040 -0.702079 -0.201423
2856293120 -0.757713 0.052849
2857284200 -0.750484 0.13464
2858275280 -0.756954 0.074926
2859266360 -0.667956 -0.255159
2860257440 -0.706904 -0.153372
2861248520 -0.749681 0.098605
2862239600 -0.732627 0.180696
2863230680 -0.732023 0.174622
2864221760 -0.676517 -0.203869
2865212840 -0.712568 -0.114006
2866203920 -0.731012 0.129922
2867195000 -0.717097 0.203119
2868186080 -0.727271 0.147857
2869177160 -0.684119 -0.163121
2870168240 -0.724642 -0.073498
2871159320 -0.723192 0.166575
2872150400 -0.702133 0.228964
2873141480 -0.68978 0.250392
2874132560 -0.667803 -0.196465
2875123640 -0.708937 0.185192
2876114720 -0.727463 0.05008
2877105800 -0.640159 0.328745
2878096880 -0.674751 0.273401
2879087960 -0.671567 -0.162851
2880079040 -0.590419 0.394765
2881070120 -0.71603 0.141904
2882061200 -0.685707 -0.13899
2883052280 -0.719288 0.10693
2884043360 -0.611725 0.364937
2885034440 -0.645332 0.31651
2886025520 -0.718244 0.039018
2887016600 -0.71775 -0.028361
2888007680 -0.667554 0.269191
2888998760 -0.715119 0.074577
2889989840 -0.618385 0.339276
2890980920 -0.651542 0.288132
2891972000 -0.566262 0.399706
2892963080 -0.714321 0.084457
2893954160 -0.71376 0.042303
2894945240 -0.587155 0.372597
2895936320 -0.626094 0.320941
2896927400 -0.582703 0.37699
2897918480 -0.570543 0.384144
2898909560 -0.614774 0.331991
2899900640 -0.568116 0.391459
2900891720 -0.704263 0.073972
2901882800 -0.701383 -0.04561
2902873880 -0.708413 -0.032619
2903864960 -0.704251 -0.024681
2904856040 -0.711374 -0.024543
2905847120 -0.711577 -0.017351
2906838200 -0.710069 -0.011088
2907829280 -0.705256 -0.00444
2908820360 -0.709537 0.002574
2909811440 -0.711931 0.014923
2910802520 -0.712047 0.030029
2911793600 -0.715276 0.146268
2912784680 -0.714311 0.042601
2913775760 -0.714044 0.061543
2914766840 -0.71461 0.039756
2915757920 -0.713244 0.066572
2916749000 -0.713845 0.069593
2917740080 -0.701062 0.143239
2918731160 -0.70827 0.086361
2919722240 -0.706629 0.095523
2920713320 -0.708425 0.108706
2921704400 -0.709207 0.110764
2922695480 -0.70131 0.128264
2923686560 -0.701522 0.136994
2924677640 -0.709874 0.137381
2925668720 -0.704041 0.15058
2926659800 0.232324 0.296276
2927650880 -0.347376 0.529732
2928641960 -0.26734 0.538721
2929633040 -0.336733 0.528427
2930624120 -0.248697 0.553661
2931615200 -0.322116 0.543064
2932606280 -0.233475 0.548734
2933597360 -0.235306 0.544589
2934588440 -0.303007 0.549844
2935579520 -0.204202 0.561001
2936570600 -0.270942 0.555972
2937561680 -0.199679 0.554475
2938552760 -0.181052 0.562896
2939543840 -0.2449 0.556935
2940534920 -0.181438 0.56761
2941526000 -0.248241 0.555383
2942517080 -0.157592 0.556512
2943508160 -0.153768 0.575312
2944499240 -0.215104 0.573214
2945490320 -0.127206 0.559991
2946481400 -0.208609 0.57287
2947472480 -0.106667 0.567819
2948463560 -0.111328 0.557088
2949454640 0.243948 0.349353
2950445720 -0.657218 0.335597
2951436800 -0.647636 0.350641
2952427880 -0.654856 0.340004
2953418960 -0.647478 0.352089
2954410040 -0.641588 0.359107
2955401120 -0.646623 0.361959
2956392200 -0.641666 0.363014
2957383280 -0.62373 0.381732
2958374360 -0.623046 0.382479
2959365440 -0.625943 0.392921
2960356520 -0.613032 0.397106
2961347600 -0.608793 0.409182
2962338680 -0.610929 0.412784
2963329760 -0.608524 0.419277
2964320840 -0.593167 0.419264
2965311920 -0.564569 0.468179
2966303000 -0.592547 0.443923
2967294080 -0.5935 0.446265
2968285160 -0.587313 0.452618
2969276240 -0.587853 0.462115
2970267320 -0.58601 0.461714
2971258400 -0.563603 0.468948
2972249480 -0.580834 0.462459
2973240560 -0.57522 0.47856
2974231640 -0.563033 0.489929
2975222720 -0.506635 0.524461
2976213800 -0.557373 0.500299
2977204880 -0.554116 0.506761
2978195960 -0.544683 0.516097
2979187040 -0.239222 0.646923
2980178120 0.052166 0.603726
2981169200 -0.533474 0.544298
2982160280 -0.544502 0.558834
2983151360 -0.545585 0.555391
2984142440 -0.536358 0.576514
2985133520 -0.52586 0.579216
2986124600 -0.538114 0.576577
2987115680 -0.536221 0.590579
2988106760 -0.510724 0.586636
2989097840 -0.5144 0.599615
2990088920 -0.51269 0.602123
2991080000 -0.501154 0.601166
2992071080 -0.483721 0.609315
2993062160 -0.500191 0.612913
2994053240 -0.487321 0.60555
2995044320 -0.468332 0.605715
2996035400 -0.485868 0.611268
2997026480 -0.468465 0.617328
2998017560 -0.449429 0.612749
2999008640 -0.473094 0.602803
2999999720 -0.457184 0.618801
