# HZ S RI R 50
2500000000 0.455236 0.001273
2505000000 -0.538877 0.603596
2510000000 -0.513304 0.630527
2515000000 -0.465321 0.676567
2520000000 -0.413723 0.722796
2525000000 -0.316919 0.75238
2530000000 -0.573456 0.550651
2535000000 -0.177049 0.762977
2540000000 0.025902 0.737621
2545000000 -0.404547 0.704802
2550000000 -0.359576 0.71737
2555000000 -0.462293 0.665018
2560000000 0.00679 0.735503
2565000000 0.100859 0.692004
2570000000 -0.000542 0.721264
2575000000 -0.285428 0.71344
2580000000 -0.293609 0.687585
2585000000 0.132993 0.624941
2590000000 0.175756 0.588873
2595000000 0.163349 0.603167
2600000000 -0.134486 0.720317
2605000000 0.127024 0.625601
2610000000 0.234306 0.541767
2615000000 0.383432 0.206863
2620000000 0.330815 0.420742
2625000000 0.094116 0.685991
2630000000 0.427693 0.135853
2635000000 0.409842 0.353894
2640000000 0.425533 -0.051686
2645000000 0.343408 0.510333
2650000000 0.350495 0.536102
2655000000 0.493286 0.066506
2660000000 0.464252 -0.138048
2665000000 0.446134 -0.208632
2670000000 0.461398 0.404373
2675000000 0.54419 0.107693
2680000000 0.532351 -0.072744
2685000000 0.053984 -0.608272
2690000000 0.161468 -0.590328
2695000000 0.580216 0.124862
2700000000 -0.158518 -0.689208
2705000000 0.439358 -0.384439
2710000000 0.574706 -0.055835
2715000000 0.456454 -0.374997
2720000000 -0.264775 -0.735873
2725000000 -0.139999 -0.743015
2730000000 0.259221 -0.586933
2735000000 0.405984 -0.430599
2740000000 -0.050368 -0.718177
2745000000 0.061855 -0.676232
2750000000 -0.703622 -0.514725
2755000000 -0.346388 -0.705501
2760000000 0.300662 -0.522519
2765000000 -0.461743 -0.649559
2770000000 -0.259813 -0.702525
2775000000 -0.856893 -0.296801
2780000000 -0.583854 -0.56874
2785000000 0.041828 -0.627094
2790000000 -0.753493 -0.391831
2795000000 -0.702052 -0.427293
2800000000 -0.850234 -0.188293
2805000000 -0.656811 -0.434324
2810000000 -0.231665 -0.603404
2815000000 -0.838765 -0.064123
2820000000 -0.651034 -0.400609
2825000000 -0.824315 0.001639
2830000000 -0.606869 -0.395193
2835000000 -0.6511 -0.353424
2840000000 -0.792231 0.037787
2845000000 -0.784597 0.063794
2850000000 -0.772078 -0.002316
2855000000 -0.639532 -0.290858
2860000000 -0.736679 -0.072653
2865000000 -0.742809 0.046976
2870000000 -0.670174 0.299227
2875000000 -0.685716 0.252087
2880000000 -0.675357 -0.163405
2885000000 -0.559661 0.423785
2890000000 -0.655048 0.284449
2895000000 -0.709728 -0.031516
2900000000 -0.693765 0.165259
2905000000 -0.533845 0.416588
2910000000 -0.511563 0.433551
2915000000 -0.636393 0.307675
2920000000 -0.67986 0.227252
2925000000 -0.470359 0.467515
2930000000 -0.549164 0.423862
2935000000 -0.341184 0.534331
2940000000 -0.314739 0.552769
2945000000 -0.274199 0.570678
2950000000 -0.508786 0.480503
2955000000 -0.601313 0.413244
2960000000 -0.160706 0.575071
2965000000 -0.106458 0.589641
2970000000 -0.140004 0.605086
2975000000 -0.037865 0.60036
2980000000 -0.075546 0.645885
2985000000 0.067669 0.629952
2990000000 0.007659 0.668351
2995000000 -0.319036 0.666922
3000000000 -0.195196 0.676647
