# HZ S RI R 50
2000000000 0.777052 -0.478117
2001982161 0.787742 -0.438491
2003964322 -0.052962 -0.785361
2005946483 -0.390769 -0.682766
2007928644 -0.073118 -0.808221
2009910805 0.741405 -0.524321
2011892966 0.554501 -0.677945
2013875127 -0.104935 -0.830309
2015857288 -0.305088 -0.796931
2017839449 0.082912 -0.847684
2019821610 0.803453 -0.469896
2021803771 0.582546 -0.678149
2023785932 0.292125 -0.810302
2025768093 -0.050216 -0.847986
2027750254 0.318679 -0.805156
2029732415 0.622413 -0.646909
2031714576 0.582608 -0.673913
2033696737 0.078509 -0.842695
2035678898 -0.143681 -0.833766
2037661059 -0.00588 -0.852911
2039643220 0.751967 -0.535648
2041625381 0.436329 -0.757182
2043607542 0.090153 -0.84889
2045589703 -0.630331 -0.611037
2047571864 -0.11287 -0.859012
2049554025 0.674951 -0.608535
2051536186 -0.66519 -0.613829
2053518347 0.007283 -0.864309
2055500508 -0.702953 -0.551259
2057482669 0.355739 -0.803153
2059464830 0.336231 -0.817651
2061446991 -0.027595 -0.882805
2063429152 -0.408749 -0.791877
2065411313 0.479964 -0.775266
2067393474 0.120756 -0.881365
2069375635 -0.808898 -0.515833
2071357796 0.172398 -0.88209
2073339957 -0.040212 -0.88721
2075322118 0.602194 -0.687
2077304279 -0.684499 -0.643627
2079286440 -0.116058 -0.891225
2081268601 -0.304498 -0.855737
2083250762 -0.476545 -0.786345
2085232923 -0.090674 -0.906008
2087215084 0.322163 -0.856276
2089197245 0.491548 -0.777459
2091179406 -0.232626 -0.884829
2093161567 -0.44467 -0.819975
2095143728 -0.507397 -0.784237
2097125889 -0.337343 -0.850141
2099108050 -0.555744 -0.74614
2101090211 -0.410033 -0.820105
2103072372 -0.004283 -0.88838
2105054533 0.349318 -0.841796
2107036694 0.317249 -0.854726
2109018855 -0.652007 -0.703246
2111001016 -0.527665 -0.798002
2112983177 -0.700071 -0.690608
2114965338 -0.718557 -0.66893
2116947499 -0.557588 -0.785586
2118929660 -0.765811 -0.671214
2120911821 -0.385954 -0.861228
2122893982 0.231706 -0.899912
2124876143 0.025854 -0.922817
2126858304 -0.615158 -0.743078
2128840465 -0.80138 -0.591248
2130822626 -0.64212 -0.734436
2132804787 -0.800404 -0.571005
2134786948 -0.825183 -0.561946
2136769109 -0.685717 -0.724471
2138751270 -0.494041 -0.828474
2140733431 0.151485 -0.925245
2142715592 -0.103392 -0.927038
2144697753 -0.836787 -0.532991
2146679914 -0.679983 -0.680818
2148662075 -0.789169 -0.561777
2150644236 -0.634005 -0.669579
2152626397 -0.893702 -0.39274
2154608558 0.092794 -0.820108
2156590719 0.066661 -0.831373
2158572880 -0.798661 -0.563129
2160555041 -0.676467 -0.683097
2162537202 -0.821331 -0.528177
2164519363 -0.141211 -0.911715
2166501524 -0.16974 -0.919265
2168483685 -0.760871 -0.633431
2170465846 0.028718 -0.912824
2172448007 -0.234538 -0.918964
2174430168 -0.937076 -0.409336
2176412329 -0.837565 -0.593934
2178394490 -1.04923 -0.174878
2180376651 -0.681705 -0.728199
2182358812 -0.191782 -0.93014
2184340973 -0.094952 -0.916919
2186323134 -0.538395 -0.820138
2188305295 -0.554987 -0.810016
2190287456 -0.91496 -0.522514
2192269617 -1.035865 -0.308702
2194251778 -1.005307 -0.318693
2196233939 -0.925665 -0.48309
2198216100 -1.015169 -0.292412
2200198261 -0.013102 -0.884269
2202180422 0.200738 -0.875631
2204162583 0.20844 -0.885188
2206144744 0.192884 -0.895013
2208126905 0.102641 -0.863082
2210109066 0.154431 -0.90552
2212091227 0.159282 -0.900871
2214073388 0.065033 -0.861526
2216055549 0.12949 -0.910988
2218037710 0.144906 -0.900913
2220019871 0.097259 -0.909705
2222002032 0.096851 -0.893448
2223984193 0.084287 -0.902437
2225966354 0.087502 -0.897554
2227948515 -0.977505 -0.397258
2229930676 -1.113994 0.072637
2231912837 -1.078425 0.044164
2233894998 -1.08422 0.295513
2235877159 -1.094817 0.296967
2237859320 -1.087139 0.098152
2239841481 -1.072136 0.262907
2241823642 -1.09565 0.151109
2243805803 -1.07736 0.344205
2245787964 -1.075769 0.340953
2247770125 -1.102003 0.114758
2249752286 -1.069617 0.354139
2251734447 -1.090935 0.115307
2253716608 -1.062748 0.343974
2255698769 -1.046682 0.368097
2257680930 -1.080963 0.159045
2259663091 -1.046592 0.388883
2261645252 -1.079857 0.166333
2263627413 -1.039177 0.386616
2265609574 -1.059429 0.398875
2267591735 -1.083481 0.240612
2269573896 -1.048859 0.384041
2271556057 -0.590308 0.976005
2273538218 -0.260536 -0.836816
2275520379 -0.234007 -0.889839
2277502540 -0.220689 -0.881461
2279484701 -0.292707 -0.903728
2281466862 -0.278323 -0.88156
2283449023 -0.246145 -0.9075
2285431184 -0.283494 -0.895509
2287413345 -0.304441 -0.859712
2289395506 -0.295261 -0.896337
2291377667 -0.30278 -0.903712
2293359828 -0.363793 -0.820654
2295341989 -0.309306 -0.892303
2297324150 -0.302145 -0.880778
2299306311 -0.394447 -0.820683
2301288472 -0.343077 -0.860959
2303270633 -0.442755 -0.832786
2305252794 -0.367827 -0.854223
2307234955 -0.420033 -0.785046
2309217116 -0.393147 -0.833582
2311199277 -0.37558 -0.846
2313181438 -0.440345 -0.776917
2315163599 -0.425331 -0.808239
2317145760 -0.37583 -0.854349
2319127921 -0.459077 -0.786079
2321110082 -0.431189 -0.807829
2323092243 -0.420996 -0.811111
2325074404 -0.445595 -0.777584
2327056565 -0.465889 -0.761646
2329038726 -0.480946 -0.761717
2331020887 -0.493834 -0.780342
2333003048 -0.596114 -0.626195
2334985209 -0.476399 -0.752871
2336967370 -0.518364 -0.738632
2338949531 -0.54678 -0.676068
2340931692 -0.524333 -0.741088
2342913853 -0.547386 -0.751016
2344896014 -0.584825 -0.650726
2346878175 -0.556959 -0.70088
2348860336 -0.566107 -0.716844
2350842497 -0.586394 -0.698874
2352824658 -0.595673 -0.694091
2354806819 -0.62115 -0.71111
2356788980 -0.603904 -0.734853
2358771141 -0.624459 -0.632468
2360753302 -0.627105 -0.665257
2362735463 -0.608056 -0.723327
2364717624 -0.66154 -0.620027
2366699785 -0.627015 -0.656295
2368681946 -0.614381 -0.686372
2370664107 -0.658122 -0.653317
2372646268 -0.661205 -0.630354
2374628429 -0.662933 -0.609008
2376610590 -0.663105 -0.615989
2378592751 -0.678673 -0.538532
2380574912 -0.707708 -0.596953
2382557073 -0.684838 -0.617071
2384539234 -0.726056 -0.510505
2386521395 -0.711156 -0.566516
2388503556 -0.670052 -0.568383
2390485717 -0.703816 -0.537593
2392467878 -0.709828 -0.495533
2394450039 -0.744218 -0.491211
2396432200 -0.721986 -0.516879
2398414361 -0.722416 -0.409947
2400396522 0.611093 0.546424
2402378683 -0.950506 0.246622
2404360844 -0.942377 0.264524
2406343005 -0.949572 0.270504
2408325166 -0.949625 0.291034
2410307327 -0.895168 0.411422
2412289488 -0.951918 0.047126
2414271649 -0.959332 0.023388
2416253810 -0.760668 0.649266
2418235971 -0.88708 0.431489
2420218132 -0.949134 -0.003998
2422200293 -0.923062 -0.122492
2424182454 -0.952742 0.011288
2426164615 -0.923489 0.288177
2428146776 -0.771732 0.608303
2430128937 -0.831087 0.499297
2432111098 -0.861721 -0.175381
2434093259 -0.918676 0.009656
2436075420 -0.925557 0.179358
2438057581 -0.802052 0.5335
2440039742 -0.716373 0.642846
2442021903 -0.860453 -0.165006
2444004064 -0.869362 0.394406
2445986225 -0.857003 0.406487
2447968386 -0.64914 0.683408
2449950547 -0.782146 0.514042
2451932708 -0.890691 -0.075515
2453914869 -0.535509 0.749187
2455897030 -0.811097 0.452264
2457879191 -0.596332 0.692819
2459861352 -0.867609 0.230256
2461843513 -0.869445 0.024255
2463825674 -0.640783 0.62238
2465807835 -0.630479 0.622187
2467789996 -0.691688 0.543846
2469772157 -0.814707 0.274084
2471754318 -0.838636 0.198928
2473736479 -0.593093 0.619405
2475718640 -0.581361 0.621664
2477700801 -0.575096 0.623281
2479682962 -0.813242 0.085347
2481665123 -0.73188 0.419609
2483647284 -0.622834 0.564402
2485629445 -0.801969 0.215922
2487611606 -0.793447 0.210047
2489593767 -0.546353 0.620336
2491575928 -0.55211 0.611654
2493558089 -0.764832 0.290731
2495540250 -0.720498 0.402286
2497522411 -0.776182 0.235492
2499504572 -0.512538 0.635184
2501486733 -0.555661 0.608652
2503468894 -0.32486 0.743533
2505451055 -0.695419 0.417423
2507433216 -0.726278 0.363965
2509415377 -0.426666 0.705023
2511397538 -0.474278 0.668378
2513379699 -0.39303 0.710684
2515361860 -0.680244 0.402354
2517344021 -0.661633 0.427528
2519326182 -0.35 0.710694
2521308343 -0.409193 0.678986
2523290504 -0.256223 0.730996
2525272665 -0.621018 0.461303
2527254826 -0.607395 0.472
2529236987 -0.359262 0.688835
2531219148 -0.344758 0.688236
2533201309 -0.264344 0.707236
2535183470 -0.510038 0.571986
2537165631 -0.545762 0.528344
2539147792 -0.209979 0.708059
2541129953 -0.265048 0.696909
2543112114 -0.1047 0.704109
2545094275 -0.549887 0.521523
2547076436 -0.292365 0.706307
2549058597 -0.27951 0.714066
2551040758 -0.137242 0.736288
2553022919 -0.203427 0.737068
2555005080 -0.536342 0.586232
2556987241 -0.191339 0.745272
2558969402 -0.190421 0.73682
2560951563 -0.51995 0.597858
2562933724 -0.289249 0.71701
2564915885 0.092351 0.674809
2566898046 -0.111062 0.736106
2568880207 -0.225805 0.725764
2570862368 -0.351733 0.695554
2572844529 -0.175669 0.725662
2574826690 -0.1543 0.723246
2576808851 0.001747 0.711598
2578791012 0.092354 0.668455
2580773173 0.093107 0.654254
2582755334 0.055059 0.680475
2584737495 -0.247382 0.705317
2586719656 -0.139341 0.693003
2588701817 0.01524 0.657436
2590683978 0.09944 0.62388
2592666139 0.16553 0.577135
2594648300 0.171545 0.559837
2596630461 0.127398 0.589842
2598612622 0.251829 0.479943
2600594783 -0.173805 0.683031
2602576944 -0.151544 0.68423
2604559105 -0.192171 0.691439
2606541266 -0.179116 0.683544
2608523427 -0.161813 0.692587
2610505588 -0.150205 0.691332
2612487749 -0.122298 0.668344
2614469910 -0.120345 0.69549
2616452071 -0.126798 0.697551
2618434232 -0.098696 0.698554
2620416393 -0.104494 0.6955
2622398554 -0.076244 0.694779
2624380715 -0.04728 0.68911
2626362876 -0.018771 0.668157
2628345037 -0.005039 0.695307
2630327198 0.011704 0.691708
2632309359 0.061929 0.651209
2634291520 0.074671 0.678618
2636273681 0.084667 0.680345
2638255842 0.120227 0.660662
2640238003 0.136291 0.659889
2642220164 0.150439 0.644115
2644202325 0.179279 0.63276
2646184486 0.200275 0.608862
2648166647 0.208481 0.620268
2650148808 0.223169 0.621452
2652130969 -0.189219 0.768397
2654113130 0.427804 -0.14201
2656095291 0.380844 -0.254608
2658077452 0.432576 -0.173512
2660059613 0.347037 -0.322677
2662041774 0.393845 -0.276676
2664023935 0.325007 -0.387251
2666006096 0.322303 -0.393437
2667988257 0.396829 -0.310287
2669970418 0.277921 -0.46679
2671952579 0.348976 -0.394145
2673934740 0.24888 -0.503091
2675916901 0.233187 -0.517274
2677899062 0.34229 -0.432127
2679881223 0.269774 -0.510916
2681863384 0.34137 -0.45403
2683845545 0.21017 -0.560393
2685827706 0.22259 -0.543914
2687809867 0.292852 -0.519692
2689792028 0.118284 -0.626588
2691774189 0.222793 -0.568256
2693756350 0.031736 -0.666924
2695738511 0.517526 0.22253
2697720672 0.553129 0.257432
2699702833 0.560214 0.248517
2701684994 0.573706 0.208017
2703667155 0.548285 0.148462
2705649316 0.583278 0.157596
2707631477 0.604168 0.144542
2709613638 0.57623 0.072153
2711595799 0.59499 0.083357
2713577960 0.601632 0.081697
2715560121 0.598051 0.015864
2717542282 0.599 0.011329
2719524443 0.603374 -0.004133
2721506604 0.599331 -0.037909
2723488765 0.570684 -0.086885
2725470926 0.595628 -0.080783
2727453087 0.598421 -0.104517
2729435248 0.540501 -0.165655
2731417409 0.579638 -0.149239
2733399570 0.580807 -0.152354
2735381731 0.557831 -0.213882
2737363892 0.561191 -0.209898
2739346053 0.55166 -0.209822
2741328214 0.54266 -0.2536
2743310375 0.509648 -0.270271
2745292536 0.522293 -0.277082
2747274697 0.523741 -0.291738
2749256858 0.444818 -0.338049
2751239019 0.487184 -0.329959
2753221180 0.487041 -0.343871
2755203341 0.427614 -0.386643
2757185502 0.184223 -0.662098
2759167663 0.41018 -0.424599
2761149824 0.408714 -0.431859
2763131985 0.414102 -0.423579
2765114146 0.386377 -0.466272
2767096307 0.318983 -0.484288
2769078468 0.35405 -0.502595
2771060629 0.343568 -0.512881
2773042790 0.259453 -0.545783
2775024951 0.272505 -0.556333
2777007112 0.288021 -0.529282
2778989273 0.21496 -0.587423
2780971434 0.215372 -0.571977
2782953595 0.211125 -0.580719
2784935756 0.17769 -0.604672
2786917917 0.140496 -0.599871
2788900078 0.150247 -0.61268
2790882239 0.120821 -0.62515
2792864400 0.049036 -0.617133
2794846561 0.087765 -0.622924
2796828722 0.080705 -0.633706
2798810883 -0.012925 -0.625952
2800793044 0.188455 0.587315
2802775205 -0.659559 -0.488239
2804757366 -0.754744 -0.378431
2806739527 -0.682742 -0.460676
2808721688 -0.594386 -0.535061
2810703849 -0.718428 -0.433313
2812686010 -0.626841 -0.504545
2814668171 -0.407463 -0.612889
2816650332 -0.843197 -0.185826
2818632493 -0.722025 -0.39346
2820614654 -0.537044 -0.550018
2822596815 -0.448083 -0.559562
2824578976 -0.503379 -0.544265
2826561137 -0.805704 -0.220602
2828543298 -0.802055 -0.18882
2830525459 -0.809124 -0.175611
2832507620 -0.536004 -0.510547
2834489781 -0.573899 -0.488435
2836471942 -0.800311 -0.130313
2838454103 -0.809254 -0.112317
2840436264 -0.814657 0.003972
2842418425 -0.602777 -0.439779
2844400586 -0.623327 -0.420423
2846382747 -0.809038 0.043546
2848364908 -0.80143 -0.026442
2850347069 -0.79612 0.06432
2852329230 -0.560692 -0.429813
2854311391 -0.713804 -0.247861
2856293552 -0.779153 -0.060853
2858275713 -0.749681 0.203554
2860257874 -0.762071 0.137558
2862240035 -0.617628 -0.347429
2864222196 -0.687257 0.311782
2866204357 -0.760078 0.024055
2868186518 -0.7018 0.265075
2870168679 -0.748586 -0.030928
2872150840 -0.666035 -0.257919
2874133001 -0.706056 0.228605
2876115162 -0.697409 0.241619
2878097323 -0.691549 0.258956
2880079484 -0.71185 -0.134026
2882061645 -0.69462 -0.19416
2884043806 -0.704618 0.224434
2886025967 -0.726616 0.14663
2888008128 -0.731016 -0.055004
2889990289 -0.712611 0.182671
2891972450 -0.597839 0.379191
2893954611 -0.730959 0.049146
2895936772 -0.718743 0.13351
2897918933 -0.702415 -0.129463
2899901094 -0.59975 0.36143
2901883255 -0.668464 0.266591
2903865416 -0.470247 0.465304
2905847577 -0.715582 0.13121
2907829738 -0.726902 0.025403
2909811899 -0.539059 0.411454
2911794060 -0.574104 0.380088
2913776221 -0.519949 0.422986
2915758382 -0.704754 0.14524
2917740543 -0.700331 0.173019
2919722704 -0.531249 0.414279
2921704865 -0.521998 0.418265
2923687026 -0.452292 0.462448
2925669187 -0.679189 0.223245
2927651348 -0.672179 0.246763
2929633509 -0.420639 0.480071
2931615670 -0.460041 0.466775
2933597831 -0.317101 0.515515
2935579992 -0.60042 0.348635
2937562153 -0.632332 0.320897
2939544314 -0.345478 0.513549
2941526475 -0.330713 0.526245
2943508636 -0.317985 0.522217
2945490797 -0.659637 0.295346
2947472958 -0.434906 0.49875
2949455119 -0.485269 0.47665
2951437280 -0.267636 0.546205
2953419441 -0.267073 0.5473
2955401602 -0.662069 0.319306
2957383763 -0.300087 0.547748
2959365924 -0.211836 0.560857
2961348085 -0.599574 0.406693
2963330246 -0.388374 0.53639
2965312407 -0.078785 0.566066
2967294568 -0.311209 0.560288
2969276729 -0.400091 0.550272
2971258890 -0.557983 0.462089
2973241051 -0.190256 0.586121
2975223212 -0.328939 0.577216
2977205373 -0.157493 0.582925
2979187534 -0.137095 0.600502
2981169695 -0.040679 0.575539
2983151856 -0.371235 0.574709
2985134017 -0.407245 0.574012
2987116178 -0.070471 0.605256
2989098339 -0.050379 0.602979
2991080500 -0.029218 0.610788
2993062661 -0.021543 0.60214
2995044822 -0.019115 0.606095
2997026983 0.005055 0.610696
2999009144 -0.149742 0.627018
3000991305 -0.417826 0.590605
3002973466 -0.437127 0.574548
3004955627 -0.465086 0.5857
3006937788 -0.463327 0.600142
3008919949 -0.444387 0.621932
3010902110 -0.43076 0.613943
3012884271 -0.437406 0.632512
3014866432 -0.404697 0.62838
3016848593 -0.38979 0.632552
3018830754 -0.40885 0.644008
3020812915 -0.207938 0.678543
3022795076 -0.298522 0.693844
3024777237 0.489898 0.34695
3026759398 0.434846 0.424835
3028741559 0.440968 0.426337
3030723720 0.430239 0.44094
3032705881 0.48056 0.402017
3034688042 0.550412 0.306935
3036670203 0.480302 0.416352
3038652364 0.525724 0.375056
3040634525 0.522707 0.386494
3042616686 0.539328 0.361517
3044598847 0.623801 0.208826
3046581008 0.635666 0.201688
3048563169 0.566467 0.328979
3050545330 0.654228 0.175852
3052527491 0.594007 0.306339
3054509652 0.614258 0.284329
3056491813 0.614974 0.290913
3058473974 0.62441 0.266423
3060456135 0.641702 0.253796
3062438296 0.6586 0.203063
3064420457 0.71807 0.061095
3066402618 -0.075537 0.710503
3068384779 -0.095439 0.749882
3070366940 -0.099185 0.744808
3072349101 -0.060194 0.749614
3074331262 -0.054681 0.752871
3076313423 -0.081925 0.76199
3078295584 -0.071163 0.752409
3080277745 -0.054428 0.721332
3082259906 -0.0688 0.742934
3084242067 -0.078247 0.73105
3086224228 -0.056744 0.733091
3088206389 -0.054607 0.72439
3090188550 -0.05426 0.738565
3092170711 -0.003935 0.746869
3094152872 0.021738 0.743922
3096135033 0.029264 0.742785
3098117194 0.059501 0.748915
3100099355 0.093346 0.74539
3102081516 0.101982 0.744085
3104063677 0.094996 0.742253
3106045838 0.329354 0.685041
3108027999 0.134634 0.740882
3110010160 0.125342 0.743112
3111992321 0.160915 0.73269
3113974482 0.177669 0.71776
3115956643 0.172306 0.738518
3117938804 0.183115 0.728677
3119920965 0.216446 0.685677
3121903126 0.199313 0.714292
3123885287 0.205848 0.717876
3125867448 0.230538 0.697577
3127849609 0.242201 0.689416
3129831770 0.25063 0.712844
3131813931 0.272469 0.702492
3133796092 0.269855 0.694984
3135778253 0.278474 0.698357
3137760414 0.635123 -0.174145
3139742575 0.81447 0.159448
3141724736 0.340916 0.6867
3143706897 0.317946 0.732897
3145689058 0.461816 0.669951
3147671219 0.370733 0.730301
3149653380 0.363309 0.744078
3151635541 0.354363 0.740247
3153617702 0.36845 0.73866
3155599863 0.401898 0.677159
3157582024 0.387782 0.689848
3159564185 0.406462 0.662167
3161546346 0.424751 0.605112
3163528507 0.405553 0.632347
3165510668 0.531919 0.553881
3167492829 0.441499 0.617092
3169474990 0.456424 0.607876
3171457151 0.44482 0.612082
3173439312 0.474938 0.60392
3175421473 0.510879 0.577485
3177403634 0.492693 0.602837
3179385795 0.487971 0.594209
3181367956 0.520402 0.531286
3183350117 0.501104 0.572908
3185332278 0.625096 0.482892
3187314439 0.541054 0.560226
3189296600 0.533833 0.554866
3191278761 0.537047 0.56615
3193260922 0.557935 0.544779
3195243083 0.564373 0.528937
3197225244 0.561796 0.53718
3199207405 0.564497 0.53202
3201189566 -0.979784 -0.026039
3203171727 0.876872 -0.325827
3205153888 0.798108 -0.499888
3207136049 0.810761 -0.518495
3209118210 0.837388 -0.331582
3211100371 0.644018 -0.709208
3213082532 0.782923 0.269242
3215064693 0.810916 -0.378062
3217046854 0.344921 -0.962244
3219029015 0.856534 0.005442
3221011176 0.86142 -0.371437
3222993337 0.75747 0.28369
3224975498 0.624423 -0.780842
3226957659 0.629008 -0.770935
3228939820 0.490488 -0.925932
3230921981 0.868458 -0.06421
3232904142 0.781489 0.23601
3234886303 0.599011 -0.845955
3236868464 0.575267 -0.866561
3238850625 0.405877 -0.982304
3240832786 0.853933 0.023587
3242814947 0.794806 0.165934
3244797108 0.656264 -0.737265
3246779269 0.361292 -1.006243
3248761430 0.669439 -0.7747
3250743591 0.877127 -0.234027
3252725752 0.860008 -0.24588
3254707913 0.501484 -0.910266
3256690074 0.459886 -0.917284
3258672235 0.477453 -0.915845
3260654396 0.815953 0.102688
3262636557 0.711319 -0.640805
3264618718 0.722105 -0.648731
3266600879 0.103767 -1.058097
3268583040 0.442526 -0.907939
3270565201 0.812746 0.031899
3272547362 0.061042 -1.083686
3274529523 0.660269 -0.685752
3276511684 0.046059 -1.064756
3278493845 0.76927 -0.561098
3280476006 0.829355 -0.022842
3282458167 0.51965 -0.855703
3284440328 0.480572 -0.871039
3286422489 0.838225 -0.062913
3288404650 0.732143 -0.593814
3290386811 0.006141 -1.04351
3292368972 0.450311 -0.881129
3294351133 0.795756 -0.433978
3296333294 0.83773 -0.265426
3298315455 0.424664 -0.908628
3300297616 0.560581 -0.808495
3302279777 0.076727 -1.035633
3304261938 0.216996 -0.995389
3306244099 0.815177 -0.174516
3308226260 0.077457 -1.023451
3310208421 0.490012 -0.864395
3312190582 0.060687 -1.025612
3314172743 0.194069 -1.006766
3316154904 0.815304 -0.054446
3318137065 0.328539 -0.93496
3320119226 0.336783 -0.965897
3322101387 0.177894 -1.022273
3324083548 0.312835 -0.951709
3326065709 0.81579 -0.255843
3328047870 -0.020876 -1.01909
3330030031 0.449642 -0.911508
3332012192 0.120852 -1.008404
3333994353 0.458576 -0.872177
3335976514 0.649841 -0.655449
3337958675 0.2609 -0.980488
3339940836 0.08084 -1.028742
3341922997 0.232461 -0.982072
3343905158 0.71869 -0.511198
3345887319 0.644349 -0.67683
3347869480 0.212948 -0.962193
3349851641 -0.242494 -0.987793
3351833802 0.073084 -1.021532
3353815963 0.769681 -0.355983
3355798124 0.076431 -1.013963
3357780285 0.521324 -0.820145
3359762446 0.737015 -0.496077
3361744607 0.666787 -0.663865
3363726768 0.109061 -1.046253
3365708929 0.100721 -1.047397
3367691090 0.574024 -0.784138
3369673251 0.720402 -0.528968
3371655412 0.607558 -0.745663
3373637573 -0.008559 -1.030785
3375619734 0.149388 -0.998635
3377601895 0.114045 -0.979611
3379584056 -0.036578 -0.988809
3381566217 0.224931 -0.93366
3383548378 0.703057 -0.513643
3385530539 0.049445 -0.974539
3387512700 0.468315 -0.781514
3389494861 0.057983 -0.947008
3391477022 0.019048 -0.956828
3393459183 0.022135 -0.962041
3395441344 0.004125 -0.950881
3397423505 -0.117385 -0.938665
3399405666 0.282252 -0.896733
3401387827 0.650064 -0.561175
3403369988 0.708136 -0.458669
3405352149 0.717387 -0.487721
3407334310 0.684327 -0.485719
3409316471 0.688464 -0.506563
3411298632 0.669129 -0.484093
3413280793 0.704686 -0.469989
3415262954 0.698393 -0.502367
3417245115 0.686119 -0.489079
3419227276 0.683191 -0.513444
3421209437 0.665259 -0.511343
3423191598 0.651515 -0.568094
3425173759 0.626052 -0.546603
3427155920 0.613168 -0.598671
3429138081 0.622059 -0.579737
3431120242 0.615982 -0.580199
3433102403 0.621222 -0.602868
3435084564 0.591355 -0.602204
3437066725 0.630058 -0.566458
3439048886 -0.147569 -0.552067
3441031047 0.510859 -0.713892
3443013208 -0.464341 -0.762713
3444995369 -0.373429 -0.82657
3446977530 -0.466729 -0.763931
3448959691 -0.378569 -0.81818
3450941852 -0.482337 -0.76142
3452924013 -0.383511 -0.825066
3454906174 -0.493603 -0.732838
3456888335 -0.492027 -0.736144
3458870496 -0.424218 -0.784113
3460852657 -0.482538 -0.74026
3462834818 -0.422087 -0.782155
3464816979 -0.491752 -0.725504
3466799140 -0.513357 -0.708747
3468781301 -0.409736 -0.779216
3470763462 -0.533801 -0.680149
3472745623 -0.453659 -0.753781
3474727784 -0.523435 -0.69149
3476709945 -0.544358 -0.666464
3478692106 -0.461255 -0.734856
3480674267 -0.534411 -0.66141
3482656428 -0.463623 -0.721087
3484638589 -0.706467 0.089587
3486620750 0.389989 -0.736561
3488602911 0.396309 -0.721385
3490585072 0.371582 -0.706201
3492567233 0.358354 -0.727016
3494549394 0.37551 -0.739769
3496531555 0.36355 -0.758635
3498513716 0.374896 -0.755345
3500495877 0.346027 -0.77274
3502478038 0.367515 -0.805531
3504460199 0.362076 -0.807291
3506442360 0.346209 -0.799757
3508424521 0.376883 -0.799752
3510406682 0.340001 -0.823335
3512388843 0.214549 -0.8549
3514371004 0.314638 -0.826289
3516353165 0.32705 -0.826152
3518335326 0.28675 -0.826967
3520317487 0.272123 -0.840335
3522299648 0.30366 -0.852681
3524281809 0.276343 -0.858856
3526263970 0.262795 -0.85013
3528246131 0.295936 -0.847868
3530228292 0.264187 -0.849437
3532210453 0.211939 -0.865545
3534192614 0.216161 -0.859571
3536174775 0.120431 -0.872886
3538156936 0.201613 -0.857076
3540139097 0.199199 -0.847328
3542121258 0.197209 -0.866061
3544103419 -0.498395 0.346839
3546085580 0.170943 -0.865543
3548067741 0.182284 -0.873019
3550049902 0.149076 -0.869982
3552032063 0.132939 -0.881118
3554014224 0.139972 -0.863452
3555996385 0.138905 -0.877152
3557978546 0.12562 -0.880202
3559960707 0.101228 -0.870887
3561942868 0.092381 -0.883883
3563925029 0.07017 -0.883627
3565907190 0.07661 -0.884951
3567889351 0.082339 -0.896353
3569871512 0.055293 -0.883625
3571853673 0.039812 -0.894701
3573835834 0.06391 -0.896341
3575817995 0.059007 -0.890496
3577800156 0.030364 -0.896256
3579782317 0.03027 -0.88249
3581764478 0.014575 -0.886484
3583746639 -0.003959 -0.891565
3585728800 -0.006844 -0.878838
3587710961 -0.018451 -0.882531
3589693122 -0.039716 -0.870021
3591675283 -0.031104 -0.876856
3593657444 -0.027988 -0.888402
3595639605 -0.057819 -0.887357
3597621766 -0.084302 -0.89221
3599603927 -0.059058 -0.899153
3601586088 0.510698 0.426554
3603568249 -0.545088 -0.623686
3605550410 -0.609008 -0.540338
3607532571 -0.613821 -0.5338
3609514732 -0.559934 -0.606115
3611496893 -0.611394 -0.520052
3613479054 -0.613875 -0.518944
3615461215 -0.29754 -0.818149
3617443376 -0.667289 -0.40245
3619425537 -0.694137 -0.296543
3621407698 -0.445304 -0.729835
3623389859 -0.458584 -0.719627
3625372020 -0.401977 -0.774586
3627354181 -0.688857 -0.360133
3629336342 -0.667632 -0.447177
3631318503 -0.714841 -0.249874
3633300664 -0.495767 -0.70948
3635282825 -0.426822 -0.77779
3637264986 -0.711137 -0.344649
3639247147 -0.679208 -0.430429
3641229308 -0.684978 -0.434008
3643211469 -0.443046 -0.782812
3645193630 -0.44946 -0.774209
3647175791 -0.717064 -0.304065
3649157952 -0.722223 -0.291965
3651140113 -0.709665 -0.30668
3653122274 -0.394915 -0.799617
3655104435 -0.569578 -0.62676
3657086596 -0.723886 -0.259621
3659068757 -0.726936 -0.249386
3661050918 -0.734356 -0.142227
3663033079 -0.432442 -0.775311
3665015240 -0.695202 -0.417416
3666997401 -0.707308 -0.407546
3668979562 -0.748839 -0.111224
3670961723 -0.74642 -0.215604
3672943884 -0.472338 -0.744824
3674926045 -0.729996 0.008528
3676908206 -0.711829 -0.375074
3678890367 -0.739586 -0.075803
3680872528 -0.628338 -0.546412
3682854689 -0.510686 -0.707541
3684836850 -0.742804 -0.250297
3686819011 -0.746085 -0.16717
3688801172 -0.595677 -0.622544
3690783333 -0.729313 -0.327099
3692765494 -0.748672 -0.031428
3694747655 -0.708589 -0.411908
3696729816 -0.71539 -0.414061
3698711977 -0.570676 -0.666453
3700694138 -0.728454 0.119731
3702676299 -0.730158 -0.371347
3704658460 -0.717696 0.16377
3706640621 -0.707147 -0.455108
3708622782 -0.609871 -0.629708
3710604943 -0.763799 -0.027962
3712587104 -0.787858 -0.134041
3714569265 -0.744366 0.088422
3716551426 -0.668747 -0.531678
3718533587 -0.678383 -0.52569
3720515748 -0.77672 0.003105
3722497909 -0.77709 -0.104398
3724480070 -0.770371 0.028882
3726462231 -0.733957 -0.399843
3728444392 -0.707418 -0.482639
3730426553 -0.782886 0.054388
3732408714 -0.785094 -0.045636
3734390875 -0.765918 0.074455
3736373036 -0.7256 -0.461446
3738355197 -0.737066 -0.436777
3740337358 -0.780902 0.01627
3742319519 -0.792919 0.019676
3744301680 -0.756007 0.13723
3746283841 -0.701946 -0.520044
3748266002 -0.792388 -0.307206
3750248163 -0.803754 -0.190216
3752230324 -0.724851 0.281831
3754212485 -0.771304 0.161509
3756194646 -0.706735 -0.515201
3758176807 -0.729104 0.282675
3760158968 -0.810981 -0.086875
3762141129 -0.696442 -0.49722
3764123290 -0.777721 -0.297994
3766105451 -0.692902 0.391981
3768087612 -0.814474 -0.091628
3770069773 -0.774388 -0.298424
3772051934 -0.708551 -0.481777
3774034095 -0.798008 -0.12072
3776016256 -0.814491 0.006131
3777998417 -0.790499 0.142685
3779980578 -0.770633 0.181791
3781962739 -0.729966 0.306817
3783944900 -0.805704 -0.185511
3785927061 -0.771224 -0.361263
3787909222 -0.716186 0.313112
3789891383 -0.805763 0.108785
3791873544 -0.763454 0.241983
3793855705 -0.759584 0.249535
3795837866 -0.70752 0.381441
3797820027 -0.764294 0.274842
3799802188 -0.628786 0.515304
3801784349 -0.810596 -0.324951
3803766510 -0.789841 -0.386928
3805748671 -0.785409 -0.407335
3807730832 -0.807941 -0.383141
3809712993 -0.801639 -0.355121
3811695154 -0.795233 -0.376053
3813677315 -0.824714 -0.261723
3815659476 -0.800691 -0.345737
3817641637 -0.795783 -0.34526
3819623798 -0.854346 -0.326293
3821605959 -0.799393 -0.344114
3823588120 -0.789089 -0.326651
3825570281 -0.797104 -0.347881
3827552442 -0.784717 -0.344152
3829534603 -0.777434 -0.325539
3831516764 -0.769938 -0.348462
3833498925 -0.774595 -0.343064
3835481086 -0.792205 -0.320408
3837463247 -0.80162 -0.297025
3839445408 -0.804789 -0.294971
3841427569 -0.828907 -0.260902
3843409730 -0.822555 -0.228513
3845391891 -0.836527 -0.216252
3847374052 -0.833599 -0.234275
3849356213 -0.782113 0.136101
3851338374 -0.492374 0.692896
3853320535 -0.446184 0.711427
3855302696 -0.312037 0.815713
3857284857 -0.288396 0.802816
3859267018 -0.422251 0.737529
3861249179 -0.276126 0.817671
3863231340 -0.40935 0.760053
3865213501 -0.246423 0.823359
3867195662 -0.232427 0.82793
3869177823 -0.368225 0.769367
3871159984 -0.20974 0.835084
3873142145 -0.33658 0.804712
3875124306 -0.201946 0.870022
3877106467 -0.199086 0.884751
3879088628 -0.193701 0.88652
3881070789 -0.174824 0.884944
3883052950 -0.320328 0.833327
3885035111 -0.140225 0.893718
3887017272 -0.124118 0.890514
3888999433 -0.289445 0.832894
3890981594 -0.093047 0.883616
3892963755 -0.245622 0.835133
3894945916 -0.078077 0.878018
3896928077 -0.869597 -0.002474
3898910238 -0.857534 -0.002817
3900892399 -0.840765 0.115637
3902874560 -0.862185 0.005192
3904856721 -0.858858 -0.022081
3906838882 -0.868818 -0.011019
3908821043 -0.856481 -0.002845
3910803204 -0.836834 0.016478
3912785365 -0.857308 0.005355
3914767526 -0.855622 0.045049
3916749687 -0.846949 0.038879
3918731848 -0.843222 0.028724
3920714009 -0.838038 0.036311
3922696170 -0.850827 0.062878
3924678331 -0.829792 0.064856
3926660492 -0.848362 0.089919
3928642653 -0.844349 0.12337
3930624814 -0.822937 0.135463
3932606975 -0.849829 0.109794
3934589136 -0.840924 0.124367
3936571297 -0.826247 0.139146
3938553458 -0.834502 0.14559
3940535619 -0.774502 0.289376
3942517780 -0.813241 0.168407
3944499941 -0.825569 0.157988
3946482102 -0.821278 0.176061
3948464263 -0.805533 0.201909
3950446424 -0.78199 0.224598
3952428585 -0.787429 0.207904
3954410746 -0.784344 0.202657
3956392907 -0.77757 0.224723
3958375068 -0.800647 0.215993
3960357229 -0.794426 0.228567
3962339390 -0.73532 0.357425
3964321551 -0.797426 0.261811
3966303712 -0.821792 0.223173
3968285873 -0.753878 0.36949
3970268034 -0.798879 0.243187
3972250195 -0.793092 0.252269
3974232356 -0.778002 0.263973
3976214517 -0.775344 0.283928
3978196678 -0.770665 0.286021
3980178839 -0.765379 0.280924
3982161000 -0.751257 0.290266
3984143161 -0.764108 0.309588
3986125322 -0.754023 0.302772
3988107483 -0.761248 0.323132
3990089644 -0.753664 0.319442
3992071805 -0.767579 0.29621
3994053966 -0.755122 0.34541
3996036127 -0.763806 0.333748
3998018288 -0.752939 0.342386
4000000449 -0.737146 0.348554
